*Heading
** Job name: Job-1 Model name: Model-1
** Generated by: Abaqus/CAE 6.14-4
**Preprint, echo=NO, model=NO, history=NO, contact=NO
**
** PARTS
**
**Part, name=Part-8
*Node
      1,   2385.63037,   1687.18811
      2,   2389.63037,   1687.18811
      3,   2389.63037,   1688.18811
      4,   2385.63037,   1688.18811
      5,   2385.63037,   1693.18811
      6,   2389.63037,   1693.18811
      7,   2389.63037,   1694.18811
      8,   2385.63037,   1694.18811
      9,   2385.63037,   1692.18811
     10,   2389.63037,   1692.18811
     11,   2374.63037,   1747.18811
     12,   2374.63037,   1748.18811
     13,   2370.63037,   1748.18811
     14,   2370.63037,   1747.18811
     15,   2385.63037,   1747.18811
     16,   2385.63037,   1748.18811
     17,   2389.63037,   1747.18811
     18,   2389.63037,   1748.18811
     19,   2391.63037,   1747.18811
     20,   2391.63037,   1748.18811
     21,   2392.63037,   1747.18811
     22,   2392.63037,   1748.18811
     23,   2400.63037,   1693.18811
     24,   2399.63037,   1693.18811
     25,   2399.63037,   1692.18811
     26,   2400.63037,   1692.18811
     27,   2394.63037,   1747.18811
     28,   2394.63037,   1748.18811
     29,   2400.63037,   1694.18811
     30,   2399.63037,   1694.18811
     31,   2395.63037,   1747.18811
     32,   2395.63037,   1748.18811
     33,   2400.63037,   1697.18811
     34,   2399.63037,   1697.18811
     35,   2399.63037,   1747.18811
     36,   2399.63037,   1748.18811
     37,   2400.63037,   1698.18811
     38,   2399.63037,   1698.18811
     39,   2400.63037,   1747.18811
     40,   2400.63037,   1748.18811
     41,   2400.63037,   1743.18811
     42,   2399.63037,   1743.18811
     43,   2374.63037,   1752.18811
     44,   2374.63037,   1753.18811
     45,   2370.63037,   1753.18811
     46,   2370.63037,   1752.18811
     47,   2385.63037,   1752.18811
     48,   2385.63037,   1753.18811
     49,   2389.63037,   1752.18811
     50,   2389.63037,   1753.18811
     51,   2391.63037,   1752.18811
     52,   2391.63037,   1753.18811
     53,   2392.63037,   1752.18811
     54,   2392.63037,   1753.18811
     55,   2394.63037,   1752.18811
     56,   2394.63037,   1753.18811
     57,   2395.63037,   1752.18811
     58,   2395.63037,   1753.18811
     59,   2399.63037,   1752.18811
     60,   2399.63037,   1753.18811
     61,   2400.63037,   1752.18811
     62,   2400.63037,   1753.18811
     63,   2405.63037,   1693.18811
     64,   2404.63037,   1693.18811
     65,   2404.63037,   1692.18811
     66,   2405.63037,   1692.18811
     67,   2404.63037,   1752.18811
     68,   2404.63037,   1753.18811
     69,   2405.63037,   1694.18811
     70,   2404.63037,   1694.18811
     71,   2405.63037,   1752.18811
     72,   2405.63037,   1753.18811
     73,   2405.63037,   1697.18811
     74,   2404.63037,   1697.18811
     75,   2404.63037,   1748.18811
     76,   2405.63037,   1748.18811
     77,   2405.63037,   1698.18811
     78,   2404.63037,   1698.18811
     79,   2404.63037,   1747.18811
     80,   2405.63037,   1747.18811
     81,   2405.63037,   1743.18811
     82,   2404.63037,   1743.18811
     83,   2419.63037,   1687.18811
     84,   2419.63037,   1684.18811
     85,   2420.63037,   1684.18811
     86,   2420.63037,   1687.18811
     87,   2415.63037,   1687.18811
     88,   2415.63037,   1684.18811
     89,   2414.63037,   1687.18811
     90,   2414.63037,   1684.18811
     91,   2410.63037,   1687.18811
     92,   2410.63037,   1684.18811
     93,   2409.63037,   1687.18811
     94,   2409.63037,   1684.18811
     95,   2405.63037,   1687.18811
     96,   2405.63037,   1684.18811
     97,   2404.63037,   1687.18811
     98,   2404.63037,   1684.18811
     99,   2400.63037,   1687.18811
    100,   2400.63037,   1684.18811
    101,   2399.63037,   1687.18811
    102,   2399.63037,   1684.18811
    103,   2395.63037,   1687.18811
    104,   2395.63037,   1684.18811
    105,   2394.63037,   1687.18811
    106,   2394.63037,   1684.18811
    107,   2392.63037,   1687.18811
    108,   2392.63037,   1684.18811
    109,   2394.63037,   1688.18811
    110,   2392.63037,   1688.18811
    111,   2394.63037,   1690.18811
    112,   2392.63037,   1690.18811
    113,   2394.63037,   1692.18811
    114,   2392.63037,   1692.18811
    115,   2391.63037,   1690.18811
    116,   2391.63037,   1692.18811
    117,   2389.63037,   1690.18811
    118,   2392.63037,   1694.18811
    119,   2392.63037,   1693.18811
    120,   2394.63037,   1693.18811
    121,   2394.63037,   1694.18811
    122,   2391.63037,   1693.18811
    123,   2391.63037,   1694.18811
    124,   2366.63037,   1762.18811
    125,   2366.63037,   1763.18811
    126,   2365.63037,   1763.18811
    127,   2365.63037,   1762.18811
    128,   2370.63037,   1762.18811
    129,   2370.63037,   1763.18811
    130,   2374.63037,   1762.18811
    131,   2374.63037,   1763.18811
    132,   2385.63037,   1762.18811
    133,   2385.63037,   1763.18811
    134,   2389.63037,   1762.18811
    135,   2389.63037,   1763.18811
    136,   2391.63037,   1762.18811
    137,   2391.63037,   1763.18811
    138,   2392.63037,   1762.18811
    139,   2392.63037,   1763.18811
    140,   2394.63037,   1762.18811
    141,   2394.63037,   1763.18811
    142,   2395.63037,   1762.18811
    143,   2395.63037,   1763.18811
    144,   2399.63037,   1762.18811
    145,   2399.63037,   1763.18811
    146,   2400.63037,   1762.18811
    147,   2400.63037,   1763.18811
    148,   2404.63037,   1762.18811
    149,   2404.63037,   1763.18811
    150,   2405.63037,   1762.18811
    151,   2405.63037,   1763.18811
    152,   2409.63037,   1762.18811
    153,   2409.63037,   1763.18811
    154,   2410.63037,   1762.18811
    155,   2410.63037,   1763.18811
    156,   2414.63037,   1762.18811
    157,   2414.63037,   1763.18811
    158,   2415.63037,   1762.18811
    159,   2415.63037,   1763.18811
    160,   2414.63037,   1758.18811
    161,   2415.63037,   1758.18811
    162,   2414.63037,   1757.18811
    163,   2415.63037,   1757.18811
    164,   2414.63037,   1753.18811
    165,   2415.63037,   1753.18811
    166,   2414.63037,   1752.18811
    167,   2415.63037,   1752.18811
    168,   2414.63037,   1748.18811
    169,   2415.63037,   1748.18811
    170,   2415.63037,   1698.18811
    171,   2414.63037,   1698.18811
    172,   2414.63037,   1697.18811
    173,   2415.63037,   1697.18811
    174,   2414.63037,   1747.18811
    175,   2415.63037,   1747.18811
    176,   2415.63037,   1743.18811
    177,   2414.63037,   1743.18811
    178,   2419.63037,   1688.18811
    179,   2420.63037,   1688.18811
    180,   2415.63037,   1688.18811
    181,   2414.63037,   1688.18811
    182,   2410.63037,   1688.18811
    183,   2409.63037,   1688.18811
    184,   2405.63037,   1688.18811
    185,   2404.63037,   1688.18811
    186,   2400.63037,   1688.18811
    187,   2399.63037,   1688.18811
    188,   2395.63037,   1688.18811
    189,   2374.63037,   1697.18811
    190,   2370.63037,   1697.18811
    191,   2370.63037,   1694.18811
    192,   2374.63037,   1694.18811
    193,   2370.63037,   1698.18811
    194,   2374.63037,   1698.18811
    195,   2374.63037,   1743.18811
    196,   2370.63037,   1743.18811
    197,   2395.63037,   1690.18811
    198,   2385.63037,   1697.18811
    199,   2385.63037,   1698.18811
    200,   2385.63037,   1743.18811
    201,   2395.63037,   1692.18811
    202,   2389.63037,   1697.18811
    203,   2389.63037,   1698.18811
    204,   2389.63037,   1743.18811
    205,   2395.63037,   1693.18811
    206,   2391.63037,   1697.18811
    207,   2391.63037,   1698.18811
    208,   2391.63037,   1743.18811
    209,   2395.63037,   1694.18811
    210,   2392.63037,   1697.18811
    211,   2392.63037,   1698.18811
    212,   2392.63037,   1743.18811
    213,   2395.63037,   1697.18811
    214,   2394.63037,   1697.18811
    215,   2394.63037,   1743.18811
    216,   2394.63037,   1698.18811
    217,   2395.63037,   1698.18811
    218,   2395.63037,   1743.18811
    219,   2366.63037,   1767.18811
    220,   2366.63037,   1768.18811
    221,   2365.63037,   1768.18811
    222,   2365.63037,   1767.18811
    223,   2370.63037,   1767.18811
    224,   2370.63037,   1768.18811
    225,   2374.63037,   1767.18811
    226,   2374.63037,   1768.18811
    227,   2385.63037,   1767.18811
    228,   2385.63037,   1768.18811
    229,   2389.63037,   1767.18811
    230,   2389.63037,   1768.18811
    231,   2391.63037,   1767.18811
    232,   2391.63037,   1768.18811
    233,   2392.63037,   1767.18811
    234,   2392.63037,   1768.18811
    235,   2394.63037,   1767.18811
    236,   2394.63037,   1768.18811
    237,   2395.63037,   1767.18811
    238,   2395.63037,   1768.18811
    239,   2399.63037,   1767.18811
    240,   2399.63037,   1768.18811
    241,   2400.63037,   1767.18811
    242,   2400.63037,   1768.18811
    243,   2404.63037,   1767.18811
    244,   2404.63037,   1768.18811
    245,   2405.63037,   1767.18811
    246,   2405.63037,   1768.18811
    247,   2409.63037,   1767.18811
    248,   2409.63037,   1768.18811
    249,   2410.63037,   1767.18811
    250,   2410.63037,   1768.18811
    251,   2414.63037,   1767.18811
    252,   2414.63037,   1768.18811
    253,   2415.63037,   1767.18811
    254,   2415.63037,   1768.18811
    255,   2419.63037,   1767.18811
    256,   2419.63037,   1768.18811
    257,   2420.63037,   1767.18811
    258,   2420.63037,   1768.18811
    259,   2419.63037,   1763.18811
    260,   2420.63037,   1763.18811
    261,   2419.63037,   1762.18811
    262,   2420.63037,   1762.18811
    263,   2419.63037,   1758.18811
    264,   2420.63037,   1758.18811
    265,   2419.63037,   1757.18811
    266,   2420.63037,   1757.18811
    267,   2419.63037,   1753.18811
    268,   2420.63037,   1753.18811
    269,   2419.63037,   1752.18811
    270,   2420.63037,   1752.18811
    271,   2419.63037,   1748.18811
    272,   2420.63037,   1748.18811
    273,   2420.63037,   1698.18811
    274,   2419.63037,   1698.18811
    275,   2419.63037,   1697.18811
    276,   2420.63037,   1697.18811
    277,   2419.63037,   1747.18811
    278,   2420.63037,   1747.18811
    279,   2420.63037,   1743.18811
    280,   2419.63037,   1743.18811
    281,   2430.63037,   1684.18811
    282,   2430.63037,   1683.18811
    283,   2440.63037,   1683.18811
    284,   2440.63037,   1684.18811
    285,   2429.63037,   1684.18811
    286,   2429.63037,   1683.18811
    287,   2425.63037,   1684.18811
    288,   2425.63037,   1683.18811
    289,   2424.63037,   1683.18811
    290,   2424.63037,   1684.18811
    291,   2420.63037,   1683.18811
    292,   2366.63037,   1772.18811
    293,   2366.63037,   1773.18811
    294,   2365.63037,   1773.18811
    295,   2365.63037,   1772.18811
    296,   2370.63037,   1772.18811
    297,   2370.63037,   1773.18811
    298,   2374.63037,   1772.18811
    299,   2374.63037,   1773.18811
    300,   2385.63037,   1772.18811
    301,   2385.63037,   1773.18811
    302,   2389.63037,   1772.18811
    303,   2389.63037,   1773.18811
    304,   2391.63037,   1772.18811
    305,   2391.63037,   1773.18811
    306,   2392.63037,   1772.18811
    307,   2392.63037,   1773.18811
    308,   2394.63037,   1772.18811
    309,   2394.63037,   1773.18811
    310,   2395.63037,   1772.18811
    311,   2395.63037,   1773.18811
    312,   2399.63037,   1772.18811
    313,   2399.63037,   1773.18811
    314,   2400.63037,   1772.18811
    315,   2400.63037,   1773.18811
    316,   2404.63037,   1772.18811
    317,   2404.63037,   1773.18811
    318,   2405.63037,   1772.18811
    319,   2405.63037,   1773.18811
    320,   2409.63037,   1772.18811
    321,   2409.63037,   1773.18811
    322,   2410.63037,   1772.18811
    323,   2410.63037,   1773.18811
    324,   2414.63037,   1772.18811
    325,   2414.63037,   1773.18811
    326,   2415.63037,   1772.18811
    327,   2415.63037,   1773.18811
    328,   2419.63037,   1772.18811
    329,   2419.63037,   1773.18811
    330,   2420.63037,   1772.18811
    331,   2420.63037,   1773.18811
    332,   2424.63037,   1772.18811
    333,   2424.63037,   1773.18811
    334,   2425.63037,   1772.18811
    335,   2425.63037,   1773.18811
    336,   2424.63037,   1768.18811
    337,   2425.63037,   1768.18811
    338,   2424.63037,   1767.18811
    339,   2425.63037,   1767.18811
    340,   2424.63037,   1763.18811
    341,   2425.63037,   1763.18811
    342,   2424.63037,   1762.18811
    343,   2425.63037,   1762.18811
    344,   2424.63037,   1758.18811
    345,   2425.63037,   1758.18811
    346,   2424.63037,   1757.18811
    347,   2425.63037,   1757.18811
    348,   2424.63037,   1753.18811
    349,   2425.63037,   1753.18811
    350,   2424.63037,   1752.18811
    351,   2425.63037,   1752.18811
    352,   2424.63037,   1748.18811
    353,   2425.63037,   1748.18811
    354,   2425.63037,   1698.18811
    355,   2424.63037,   1698.18811
    356,   2424.63037,   1697.18811
    357,   2425.63037,   1697.18811
    358,   2424.63037,   1747.18811
    359,   2425.63037,   1747.18811
    360,   2425.63037,   1743.18811
    361,   2424.63037,   1743.18811
    362,   2430.63037,   1687.18811
    363,   2440.63037,   1687.18811
    364,   2429.63037,   1687.18811
    365,   2425.63037,   1687.18811
    366,   2424.63037,   1687.18811
    367,   2430.63037,   1688.18811
    368,   2440.63037,   1688.18811
    369,   2429.63037,   1688.18811
    370,   2425.63037,   1688.18811
    371,   2424.63037,   1688.18811
    372,   2460.63037,   1698.18811
    373,   2461.63037,   1698.18811
    374,   2461.63037,   1738.18811
    375,   2460.63037,   1738.18811
    376,   2450.63037,   1687.18811
    377,   2450.63037,   1688.18811
    378,   2460.63037,   1697.18811
    379,   2461.63037,   1697.18811
    380,   2451.63037,   1687.18811
    381,   2451.63037,   1688.18811
    382,   2460.63037,   1694.18811
    383,   2461.63037,   1694.18811
    384,   2455.63037,   1687.18811
    385,   2455.63037,   1688.18811
    386,   2460.63037,   1693.18811
    387,   2461.63037,   1693.18811
    388,   2456.63037,   1687.18811
    389,   2456.63037,   1688.18811
    390,   2460.63037,   1692.18811
    391,   2461.63037,   1692.18811
    392,   2460.63037,   1687.18811
    393,   2460.63037,   1688.18811
    394,   2460.63037,   1690.18811
    395,   2461.63037,   1690.18811
    396,   2461.63037,   1688.18811
    397,   2461.63037,   1687.18811
    398,   2464.63037,   1687.18811
    399,   2464.63037,   1688.18811
    400,   2465.63037,   1687.18811
    401,   2465.63037,   1688.18811
    402,   2469.63037,   1687.18811
    403,   2469.63037,   1688.18811
    404,   2500.63037,   1698.18811
    405,   2501.63037,   1698.18811
    406,   2501.63037,   1730.18811
    407,   2500.63037,   1730.18811
    408,   2470.63037,   1687.18811
    409,   2470.63037,   1688.18811
    410,   2500.63037,   1697.18811
    411,   2501.63037,   1697.18811
    412,   2490.63037,   1687.18811
    413,   2490.63037,   1688.18811
    414,   2500.63037,   1694.18811
    415,   2501.63037,   1694.18811
    416,   2491.63037,   1687.18811
    417,   2491.63037,   1688.18811
    418,   2500.63037,   1693.18811
    419,   2501.63037,   1693.18811
    420,   2495.63037,   1687.18811
    421,   2495.63037,   1688.18811
    422,   2500.63037,   1692.18811
    423,   2501.63037,   1692.18811
    424,   2496.63037,   1687.18811
    425,   2496.63037,   1688.18811
    426,   2500.63037,   1690.18811
    427,   2501.63037,   1690.18811
    428,   2497.63037,   1687.18811
    429,   2497.63037,   1688.18811
    430,   2500.63037,   1688.18811
    431,   2501.63037,   1688.18811
    432,   2500.63037,   1687.18811
    433,   2385.63037,   1684.18811
    434,   2385.63037,   1683.18811
    435,   2389.63037,   1683.18811
    436,   2389.63037,   1684.18811
    437,   2391.63037,   1679.18811
    438,   2391.63037,   1678.18811
    439,   2392.63037,   1678.18811
    440,   2392.63037,   1679.18811
    441,   2374.63037,   1683.18811
    442,   2374.63037,   1684.18811
    443,   2385.63037,   1679.18811
    444,   2389.63037,   1679.18811
    445,   2389.63037,   1678.18811
    446,   2394.63037,   1678.18811
    447,   2394.63037,   1679.18811
    448,   2374.63037,   1679.18811
    449,   2385.63037,   1678.18811
    450,   2395.63037,   1678.18811
    451,   2395.63037,   1679.18811
    452,     2374.646,   1678.18811
    453,   2399.63037,   1678.18811
    454,   2399.63037,   1679.18811
    455,   2370.63037,   1679.18811
    456,   2370.63037,   1678.18811
    457,   2400.63037,   1678.18811
    458,   2400.63037,   1679.18811
    459,   2366.63037,   1679.18811
    460,   2366.63037,   1678.18811
    461,   2404.63037,   1678.18811
    462,   2404.63037,   1679.18811
    463,   2365.63037,   1679.18811
    464,   2365.63037,   1678.18811
    465,   2405.63037,   1678.18811
    466,   2405.63037,   1679.18811
    467,   2361.63037,   1679.18811
    468,   2361.63037,   1678.18811
    469,   2409.63037,   1678.18811
    470,   2409.63037,   1679.18811
    471,   2360.63037,   1679.18811
    472,   2360.63037,   1678.18811
    473,   2410.63037,   1678.18811
    474,   2410.63037,   1679.18811
    475,   2361.63037,   1683.18811
    476,   2360.63037,   1683.18811
    477,   2414.63037,   1678.18811
    478,   2414.63037,   1679.18811
    479,   2361.63037,   1684.18811
    480,   2360.63037,   1684.18811
    481,   2415.63037,   1678.18811
    482,   2415.63037,   1679.18811
    483,   2361.63037,   1687.18811
    484,   2360.63037,   1687.18811
    485,   2419.63037,   1678.18811
    486,   2419.63037,   1679.18811
    487,   2361.63037,   1688.18811
    488,   2360.63037,   1688.18811
    489,   2420.63037,   1678.18811
    490,   2420.63037,   1679.18811
    491,   2361.63037,   1690.18811
    492,   2360.63037,   1690.18811
    493,   2424.63037,   1678.18811
    494,   2424.63037,   1679.18811
    495,   2361.63037,   1692.18811
    496,   2360.63037,   1692.18811
    497,   2425.63037,   1678.18811
    498,   2425.63037,   1679.18811
    499,   2361.63037,   1693.18811
    500,   2360.63037,   1693.18811
    501,   2429.63037,   1678.18811
    502,   2429.63037,   1679.18811
    503,   2361.63037,   1694.18811
    504,   2360.63037,   1694.18811
    505,   2430.63037,   1678.18811
    506,   2430.63037,   1679.18811
    507,   2361.63037,   1697.18811
    508,   2360.63037,   1697.18811
    509,   2440.63037,   1678.18811
    510,   2440.63037,   1679.18811
    511,   2361.63037,   1698.18811
    512,   2360.63037,   1698.18811
    513,   2450.63037,   1678.18811
    514,   2450.63037,   1679.18811
    515,   2361.63037,   1743.18811
    516,   2360.63037,   1743.18811
    517,   2451.63037,   1678.18811
    518,   2451.63037,   1679.18811
    519,   2361.63037,   1747.18811
    520,   2360.63037,   1747.18811
    521,   2455.63037,   1678.18811
    522,   2455.63037,   1679.18811
    523,   2361.63037,   1748.18811
    524,   2360.63037,   1748.18811
    525,   2456.63037,   1678.18811
    526,   2456.63037,   1679.18811
    527,   2361.63037,   1752.18811
    528,   2360.63037,   1752.18811
    529,   2460.63037,   1678.18811
    530,   2460.63037,   1679.18811
    531,   2361.63037,   1753.18811
    532,   2360.63037,   1753.18811
    533,   2461.63037,   1678.18811
    534,   2461.63037,   1679.18811
    535,   2361.63037,   1757.18811
    536,   2360.63037,   1757.18811
    537,   2464.63037,   1678.18811
    538,   2464.63037,   1679.18811
    539,   2361.63037,   1758.18811
    540,   2360.63037,   1758.18811
    541,   2465.63037,   1678.18811
    542,   2465.63037,   1679.18811
    543,   2361.63037,   1762.18811
    544,   2360.63037,   1762.18811
    545,   2469.63037,   1678.18811
    546,   2469.63037,   1679.18811
    547,   2361.63037,   1763.18811
    548,   2360.63037,   1763.18811
    549,   2470.63037,   1678.18811
    550,   2470.63037,   1679.18811
    551,   2361.63037,   1767.18811
    552,   2360.63037,   1767.18811
    553,   2490.63037,   1678.18811
    554,   2490.63037,   1679.18811
    555,   2361.63037,   1768.18811
    556,   2360.63037,   1768.18811
    557,   2491.63037,   1678.18811
    558,   2491.63037,   1679.18811
    559,   2361.63037,   1772.18811
    560,   2360.63037,   1772.18811
    561,   2495.63037,   1678.18811
    562,   2495.63037,   1679.18811
    563,   2361.63037,   1773.18811
    564,   2360.63037,   1773.18811
    565,   2496.63037,   1678.18811
    566,   2496.63037,   1679.18811
    567,   2361.63037,   1777.18811
    568,   2360.63037,   1777.18811
    569,   2497.63037,   1678.18811
    570,   2497.63037,   1679.18811
    571,   2361.63037,   1778.18811
    572,   2360.63037,   1778.18811
    573,   2500.63037,   1678.18811
    574,   2500.63037,   1679.18811
    575,   2365.63037,   1777.18811
    576,   2365.63037,   1778.18811
    577,   2501.63037,   1678.18811
    578,   2501.63037,   1679.18811
    579,   2366.63037,   1777.18811
    580,   2366.63037,   1778.18811
    581,   2502.63037,   1678.18811
    582,   2502.63037,   1679.18811
    583,   2370.63037,   1777.18811
    584,   2370.63037,   1778.18811
    585,   2504.63037,   1678.18811
    586,   2504.63037,   1679.18811
    587,   2374.63037,   1777.18811
    588,   2374.63037,   1778.18811
    589,   2505.63037,   1678.18811
    590,   2505.63037,   1679.18811
    591,   2385.63037,   1777.18811
    592,   2385.63037,   1778.18811
    593,   2509.63037,   1678.18811
    594,   2509.63037,   1679.18811
    595,   2389.63037,   1777.18811
    596,   2389.63037,   1778.18811
    597,   2510.63037,   1678.18811
    598,   2510.63037,   1679.18811
    599,   2391.63037,   1777.18811
    600,   2391.63037,   1778.18811
    601,   2510.63037,   1683.18811
    602,   2509.63037,   1683.18811
    603,   2392.63037,   1777.18811
    604,   2392.63037,   1778.18811
    605,   2510.63037,   1684.18811
    606,   2509.63037,   1684.18811
    607,   2394.63037,   1777.18811
    608,   2394.63037,   1778.18811
    609,   2510.63037,   1687.18811
    610,   2509.63037,   1687.18811
    611,   2395.63037,   1777.18811
    612,   2395.63037,   1778.18811
    613,   2510.63037,   1688.18811
    614,   2509.63037,   1688.18811
    615,   2399.63037,   1777.18811
    616,   2399.63037,   1778.18811
    617,   2510.63037,   1690.18811
    618,   2509.63037,   1690.18811
    619,   2400.63037,   1777.18811
    620,   2400.63037,   1778.18811
    621,   2510.63037,   1692.18811
    622,   2509.63037,   1692.18811
    623,   2404.63037,   1777.18811
    624,   2404.63037,   1778.18811
    625,   2510.63037,   1693.18811
    626,   2509.63037,   1693.18811
    627,   2405.63037,   1777.18811
    628,   2405.63037,   1778.18811
    629,   2510.63037,   1694.18811
    630,   2509.63037,   1694.18811
    631,   2409.63037,   1777.18811
    632,   2409.63037,   1778.18811
    633,   2510.63037,   1697.18811
    634,   2509.63037,   1697.18811
    635,   2410.63037,   1777.18811
    636,   2410.63037,   1778.18811
    637,   2510.63037,   1698.18811
    638,   2509.63037,   1698.18811
    639,   2414.63037,   1777.18811
    640,   2414.63037,   1778.18811
    641,   2510.63037,   1730.18811
    642,   2509.63037,   1730.18811
    643,   2415.63037,   1777.18811
    644,   2415.63037,   1778.18811
    645,   2510.63037,   1740.18811
    646,   2509.63037,   1740.18811
    647,   2419.63037,   1777.18811
    648,   2419.63037,   1778.18811
    649,   2510.63037,   1788.18811
    650,   2509.63037,   1788.18811
    651,   2420.63037,   1777.18811
    652,   2420.63037,   1778.18811
    653,   2510.63037,   1792.18811
    654,   2509.63037,   1792.18811
    655,   2424.63037,   1777.18811
    656,   2424.63037,   1778.18811
    657,   2510.63037,   1793.18811
    658,   2509.63037,   1793.18811
    659,   2425.63037,   1777.18811
    660,   2425.63037,   1778.18811
    661,   2510.63037,   1797.18811
    662,   2509.63037,   1797.18811
    663,   2429.63037,   1777.18811
    664,   2429.63037,   1778.18811
    665,   2509.63037,   1798.18811
    666,   2510.63037,   1798.18811
    667,   2430.63037,   1777.18811
    668,   2430.63037,   1778.18811
    669,   2505.63037,   1798.18811
    670,   2505.63037,   1797.18811
    671,   2429.63037,   1773.18811
    672,   2430.63037,   1773.18811
    673,   2504.63037,   1798.18811
    674,   2504.63037,   1797.18811
    675,   2429.63037,   1772.18811
    676,   2430.63037,   1772.18811
    677,   2502.63037,   1798.18811
    678,   2502.63037,   1797.18811
    679,   2429.63037,   1768.18811
    680,   2430.63037,   1768.18811
    681,   2501.63037,   1798.18811
    682,   2501.63037,   1797.18811
    683,   2429.63037,   1767.18811
    684,   2430.63037,   1767.18811
    685,   2500.63037,   1798.18811
    686,   2500.63037,   1797.18811
    687,   2429.63037,   1763.18811
    688,   2430.63037,   1763.18811
    689,   2497.63037,   1798.18811
    690,   2497.63037,   1797.18811
    691,   2429.63037,   1762.18811
    692,   2430.63037,   1762.18811
    693,   2496.63037,   1798.18811
    694,   2496.63037,   1797.18811
    695,   2429.63037,   1758.18811
    696,   2430.63037,   1758.18811
    697,   2495.63037,   1798.18811
    698,   2495.63037,   1797.18811
    699,   2429.63037,   1757.18811
    700,   2430.63037,   1757.18811
    701,   2491.63037,   1798.18811
    702,   2491.63037,   1797.18811
    703,   2429.63037,   1753.18811
    704,   2430.63037,   1753.18811
    705,   2490.63037,   1798.18811
    706,   2490.63037,   1797.18811
    707,   2429.63037,   1752.18811
    708,   2430.63037,   1752.18811
    709,   2490.63037,   1793.18811
    710,   2491.63037,   1793.18811
    711,   2429.63037,   1748.18811
    712,   2430.63037,   1748.18811
    713,   2490.63037,   1792.18811
    714,   2491.63037,   1792.18811
    715,   2429.63037,   1747.18811
    716,   2430.63037,   1747.18811
    717,   2490.63037,   1788.18811
    718,   2491.63037,   1788.18811
    719,   2429.63037,   1743.18811
    720,   2430.63037,   1743.18811
    721,   2490.63037,   1740.18811
    722,   2491.63037,   1740.18811
    723,   2429.63037,   1698.18811
    724,   2430.63037,   1698.18811
    725,   2490.63037,   1730.18811
    726,   2491.63037,   1730.18811
    727,   2429.63037,   1697.18811
    728,   2430.63037,   1697.18811
    729,   2490.63037,   1698.18811
    730,   2491.63037,   1698.18811
    731,   2440.63037,   1697.18811
    732,   2440.63037,   1698.18811
    733,   2490.63037,   1697.18811
    734,   2491.63037,   1697.18811
    735,   2450.63037,   1697.18811
    736,   2450.63037,   1698.18811
    737,   2470.63037,   1698.18811
    738,   2470.63037,   1697.18811
    739,   2451.63037,   1698.18811
    740,   2451.63037,   1697.18811
    741,   2469.63037,   1698.18811
    742,   2469.63037,   1697.18811
    743,   2451.63037,   1738.18811
    744,   2450.63037,   1738.18811
    745,   2470.63037,   1738.18811
    746,   2469.63037,   1738.18811
    747,   2451.63037,   1742.18811
    748,   2450.63037,   1742.18811
    749,   2470.63037,   1742.18811
    750,   2469.63037,   1742.18811
    751,   2451.63037,   1743.18811
    752,   2450.63037,   1743.18811
    753,   2470.63037,   1743.18811
    754,   2469.63037,   1743.18811
    755,   2451.63037,   1747.18811
    756,   2450.63037,   1747.18811
    757,   2470.63037,   1747.18811
    758,   2469.63037,   1747.18811
    759,   2451.63037,   1748.18811
    760,   2450.63037,   1748.18811
    761,   2469.63037,   1748.18811
    762,   2470.63037,   1748.18811
    763,   2455.63037,   1747.18811
    764,   2455.63037,   1748.18811
    765,   2465.63037,   1748.18811
    766,   2465.63037,   1747.18811
    767,   2456.63037,   1747.18811
    768,   2456.63037,   1748.18811
    769,   2464.63037,   1748.18811
    770,   2464.63037,   1747.18811
    771,   2460.63037,   1747.18811
    772,   2460.63037,   1748.18811
    773,   2461.63037,   1748.18811
    774,   2461.63037,   1747.18811
    775,   2391.63037,   1687.18811
    776,   2391.63037,   1688.18811
    777,   2391.63037,   1684.18811
    778,   2391.63037,   1683.18811
    779,   2392.63037,   1683.18811
    780,   2394.63037,   1683.18811
    781,   2395.63037,   1683.18811
    782,   2399.63037,   1683.18811
    783,   2400.63037,   1683.18811
    784,   2404.63037,   1683.18811
    785,   2405.63037,   1683.18811
    786,   2409.63037,   1683.18811
    787,   2410.63037,   1683.18811
    788,   2414.63037,   1683.18811
    789,   2415.63037,   1683.18811
    790,   2419.63037,   1683.18811
    791,   2450.63037,   1683.18811
    792,   2451.63037,   1683.18811
    793,   2455.63037,   1683.18811
    794,   2456.63037,   1683.18811
    795,   2460.63037,   1683.18811
    796,   2461.63037,   1683.18811
    797,   2464.63037,   1683.18811
    798,   2465.63037,   1683.18811
    799,   2469.63037,   1683.18811
    800,   2470.63037,   1683.18811
    801,   2490.63037,   1683.18811
    802,   2491.63037,   1683.18811
    803,   2495.63037,   1683.18811
    804,   2496.63037,   1683.18811
    805,   2497.63037,   1683.18811
    806,   2500.63037,   1683.18811
    807,   2501.63037,   1683.18811
    808,   2502.63037,   1683.18811
    809,   2504.63037,   1683.18811
    810,   2505.63037,   1683.18811
    811,   2505.63037,   1684.18811
    812,   2505.63037,   1687.18811
    813,   2505.63037,   1688.18811
    814,   2505.63037,   1690.18811
    815,   2505.63037,   1692.18811
    816,   2505.63037,   1693.18811
    817,   2505.63037,   1694.18811
    818,   2505.63037,   1697.18811
    819,   2374.63037,   1688.18811
    820,   2374.63037,   1687.18811
    821,   2505.63037,   1698.18811
    822,   2370.63037,   1687.18811
    823,   2370.63037,   1688.18811
    824,   2505.63037,   1730.18811
    825,   2370.63037,   1684.18811
    826,   2505.63037,   1740.18811
    827,   2370.63037,   1683.18811
    828,   2505.63037,   1788.18811
    829,   2505.63037,   1792.18811
    830,   2366.63037,   1683.18811
    831,   2505.63037,   1793.18811
    832,   2365.63037,   1683.18811
    833,   2504.63037,   1793.18811
    834,   2365.63037,   1684.18811
    835,   2502.63037,   1793.18811
    836,   2365.63037,   1687.18811
    837,   2501.63037,   1793.18811
    838,   2365.63037,   1688.18811
    839,   2500.63037,   1793.18811
    840,   2365.63037,   1690.18811
    841,   2497.63037,   1793.18811
    842,   2365.63037,   1692.18811
    843,   2496.63037,   1793.18811
    844,   2365.63037,   1693.18811
    845,   2495.63037,   1793.18811
    846,   2365.63037,   1694.18811
    847,   2365.63037,   1697.18811
    848,   2495.63037,   1792.18811
    849,   2365.63037,   1698.18811
    850,   2495.63037,   1788.18811
    851,   2365.63037,   1743.18811
    852,   2495.63037,   1740.18811
    853,   2365.63037,   1747.18811
    854,   2495.63037,   1730.18811
    855,   2365.63037,   1748.18811
    856,   2495.63037,   1698.18811
    857,   2365.63037,   1752.18811
    858,   2495.63037,   1697.18811
    859,   2491.63037,   1694.18811
    860,   2491.63037,   1693.18811
    861,   2495.63037,   1693.18811
    862,   2495.63037,   1694.18811
    863,   2365.63037,   1753.18811
    864,   2490.63037,   1694.18811
    865,   2490.63037,   1693.18811
    866,   2365.63037,   1757.18811
    867,   2470.63037,   1694.18811
    868,   2470.63037,   1693.18811
    869,   2365.63037,   1758.18811
    870,   2469.63037,   1694.18811
    871,   2469.63037,   1693.18811
    872,   2465.63037,   1694.18811
    873,   2465.63037,   1693.18811
    874,   2366.63037,   1758.18811
    875,   2465.63037,   1697.18811
    876,   2370.63037,   1758.18811
    877,   2465.63037,   1698.18811
    878,   2374.63037,   1758.18811
    879,   2465.63037,   1738.18811
    880,   2385.63037,   1758.18811
    881,   2465.63037,   1742.18811
    882,   2389.63037,   1758.18811
    883,   2465.63037,   1743.18811
    884,   2391.63037,   1758.18811
    885,   2392.63037,   1758.18811
    886,   2464.63037,   1743.18811
    887,   2394.63037,   1758.18811
    888,   2461.63037,   1743.18811
    889,   2395.63037,   1758.18811
    890,   2460.63037,   1743.18811
    891,   2399.63037,   1758.18811
    892,   2456.63037,   1743.18811
    893,   2400.63037,   1758.18811
    894,   2455.63037,   1743.18811
    895,   2404.63037,   1758.18811
    896,   2405.63037,   1758.18811
    897,   2455.63037,   1742.18811
    898,   2409.63037,   1758.18811
    899,   2455.63037,   1738.18811
    900,   2410.63037,   1758.18811
    901,   2455.63037,   1698.18811
    902,   2455.63037,   1697.18811
    903,   2455.63037,   1694.18811
    904,   2451.63037,   1694.18811
    905,   2451.63037,   1693.18811
    906,   2455.63037,   1693.18811
    907,   2410.63037,   1757.18811
    908,   2450.63037,   1694.18811
    909,   2450.63037,   1693.18811
    910,   2410.63037,   1753.18811
    911,   2440.63037,   1694.18811
    912,   2440.63037,   1693.18811
    913,   2410.63037,   1752.18811
    914,   2430.63037,   1694.18811
    915,   2430.63037,   1693.18811
    916,   2410.63037,   1748.18811
    917,   2429.63037,   1694.18811
    918,   2429.63037,   1693.18811
    919,   2410.63037,   1747.18811
    920,   2425.63037,   1694.18811
    921,   2425.63037,   1693.18811
    922,   2410.63037,   1743.18811
    923,   2424.63037,   1694.18811
    924,   2424.63037,   1693.18811
    925,   2410.63037,   1698.18811
    926,   2420.63037,   1694.18811
    927,   2420.63037,   1693.18811
    928,   2414.63037,   1694.18811
    929,   2410.63037,   1694.18811
    930,   2410.63037,   1693.18811
    931,   2414.63037,   1693.18811
    932,   2410.63037,   1697.18811
    933,   2419.63037,   1694.18811
    934,   2419.63037,   1693.18811
    935,   2415.63037,   1693.18811
    936,   2415.63037,   1694.18811
    937,   2385.63037,   1690.18811
    938,   2366.63037,   1684.18811
    939,   2374.63037,   1690.18811
    940,   2366.63037,   1687.18811
    941,   2450.63037,   1684.18811
    942,   2370.63037,   1690.18811
    943,   2366.63037,   1688.18811
    944,   2451.63037,   1684.18811
    945,   2366.63037,   1690.18811
    946,   2455.63037,   1684.18811
    947,   2456.63037,   1684.18811
    948,   2366.63037,   1692.18811
    949,   2460.63037,   1684.18811
    950,   2366.63037,   1693.18811
    951,   2461.63037,   1684.18811
    952,   2366.63037,   1694.18811
    953,   2464.63037,   1684.18811
    954,   2366.63037,   1697.18811
    955,   2465.63037,   1684.18811
    956,   2366.63037,   1698.18811
    957,   2469.63037,   1684.18811
    958,   2366.63037,   1743.18811
    959,   2470.63037,   1684.18811
    960,   2366.63037,   1747.18811
    961,   2490.63037,   1684.18811
    962,   2366.63037,   1748.18811
    963,   2491.63037,   1684.18811
    964,   2366.63037,   1752.18811
    965,   2495.63037,   1684.18811
    966,   2366.63037,   1753.18811
    967,   2496.63037,   1684.18811
    968,   2366.63037,   1757.18811
    969,   2497.63037,   1684.18811
    970,   2500.63037,   1684.18811
    971,   2370.63037,   1757.18811
    972,   2501.63037,   1684.18811
    973,   2374.63037,   1757.18811
    974,   2502.63037,   1684.18811
    975,   2385.63037,   1757.18811
    976,   2504.63037,   1684.18811
    977,   2389.63037,   1757.18811
    978,   2391.63037,   1757.18811
    979,   2504.63037,   1687.18811
    980,   2392.63037,   1757.18811
    981,   2504.63037,   1688.18811
    982,   2394.63037,   1757.18811
    983,   2504.63037,   1690.18811
    984,   2395.63037,   1757.18811
    985,   2504.63037,   1692.18811
    986,   2399.63037,   1757.18811
    987,   2504.63037,   1693.18811
    988,   2400.63037,   1757.18811
    989,   2504.63037,   1694.18811
    990,   2404.63037,   1757.18811
    991,   2504.63037,   1697.18811
    992,   2405.63037,   1757.18811
    993,   2504.63037,   1698.18811
    994,   2409.63037,   1757.18811
    995,   2504.63037,   1730.18811
    996,   2504.63037,   1740.18811
    997,   2409.63037,   1753.18811
    998,   2504.63037,   1788.18811
    999,   2409.63037,   1752.18811
   1000,   2504.63037,   1792.18811
   1001,   2409.63037,   1748.18811
   1002,   2409.63037,   1747.18811
   1003,   2502.63037,   1792.18811
   1004,   2409.63037,   1743.18811
   1005,   2501.63037,   1792.18811
   1006,   2409.63037,   1698.18811
   1007,   2500.63037,   1792.18811
   1008,   2409.63037,   1697.18811
   1009,   2497.63037,   1792.18811
   1010,   2409.63037,   1694.18811
   1011,   2496.63037,   1792.18811
   1012,   2409.63037,   1693.18811
   1013,   2409.63037,   1692.18811
   1014,   2410.63037,   1692.18811
   1015,   2496.63037,   1788.18811
   1016,   2414.63037,   1692.18811
   1017,   2496.63037,   1740.18811
   1018,   2415.63037,   1692.18811
   1019,   2496.63037,   1730.18811
   1020,   2419.63037,   1692.18811
   1021,   2496.63037,   1698.18811
   1022,   2420.63037,   1692.18811
   1023,   2496.63037,   1697.18811
   1024,   2424.63037,   1692.18811
   1025,   2496.63037,   1694.18811
   1026,   2425.63037,   1692.18811
   1027,   2496.63037,   1693.18811
   1028,   2429.63037,   1692.18811
   1029,   2495.63037,   1692.18811
   1030,   2496.63037,   1692.18811
   1031,   2430.63037,   1692.18811
   1032,   2491.63037,   1692.18811
   1033,   2440.63037,   1692.18811
   1034,   2490.63037,   1692.18811
   1035,   2450.63037,   1692.18811
   1036,   2470.63037,   1692.18811
   1037,   2451.63037,   1692.18811
   1038,   2469.63037,   1692.18811
   1039,   2455.63037,   1692.18811
   1040,   2465.63037,   1692.18811
   1041,   2456.63037,   1693.18811
   1042,   2456.63037,   1692.18811
   1043,   2464.63037,   1693.18811
   1044,   2464.63037,   1692.18811
   1045,   2456.63037,   1694.18811
   1046,   2464.63037,   1694.18811
   1047,   2456.63037,   1697.18811
   1048,   2464.63037,   1697.18811
   1049,   2456.63037,   1698.18811
   1050,   2464.63037,   1698.18811
   1051,   2456.63037,   1738.18811
   1052,   2464.63037,   1738.18811
   1053,   2456.63037,   1742.18811
   1054,   2464.63037,   1742.18811
   1055,   2460.63037,   1742.18811
   1056,   2461.63037,   1742.18811
   1057,   2501.63037,   1687.18811
   1058,   2502.63037,   1687.18811
   1059,   2502.63037,   1688.18811
   1060,   2502.63037,   1690.18811
   1061,   2502.63037,   1692.18811
   1062,   2502.63037,   1693.18811
   1063,   2502.63037,   1694.18811
   1064,   2502.63037,   1697.18811
   1065,   2502.63037,   1698.18811
   1066,   2502.63037,   1730.18811
   1067,   2502.63037,   1740.18811
   1068,   2502.63037,   1788.18811
   1069,   2501.63037,   1788.18811
   1070,   2501.63037,   1740.18811
   1071,   2500.63037,   1788.18811
   1072,   2497.63037,   1788.18811
   1073,   2497.63037,   1740.18811
   1074,   2500.63037,   1740.18811
   1075,   2497.63037,   1730.18811
   1076,   2497.63037,   1698.18811
   1077,   2497.63037,   1697.18811
   1078,   2497.63037,   1694.18811
   1079,   2497.63037,   1693.18811
   1080,   2497.63037,   1692.18811
   1081,   2497.63037,   1690.18811
   1082,   2496.63037,   1690.18811
   1083,   2495.63037,   1690.18811
   1084,   2491.63037,   1690.18811
   1085,   2490.63037,   1690.18811
   1086,   2470.63037,   1690.18811
   1087,   2469.63037,   1690.18811
   1088,   2465.63037,   1690.18811
   1089,   2464.63037,   1690.18811
   1090,   2456.63037,   1690.18811
   1091,   2455.63037,   1690.18811
   1092,   2451.63037,   1690.18811
   1093,   2450.63037,   1690.18811
   1094,   2440.63037,   1690.18811
   1095,   2430.63037,   1690.18811
   1096,   2429.63037,   1690.18811
   1097,   2425.63037,   1690.18811
   1098,   2424.63037,   1690.18811
   1099,   2420.63037,   1690.18811
   1100,   2419.63037,   1690.18811
   1101,   2415.63037,   1690.18811
   1102,   2414.63037,   1690.18811
   1103,   2410.63037,   1690.18811
   1104,   2409.63037,   1690.18811
   1105,   2405.63037,   1690.18811
   1106,   2404.63037,   1690.18811
   1107,   2400.63037,   1690.18811
   1108,   2399.63037,   1690.18811
   1109,   2374.63037,   1692.18811
   1110,   2370.63037,   1692.18811
   1111,   2374.63037,   1693.18811
   1112,   2370.63037,   1693.18811
   1113,   2387.63037,   1687.18811
   1114,   2387.63037,   1688.18811
   1115,   2387.63037,   1693.18811
   1116,   2387.63037,   1694.18811
   1117,   2387.63037,   1692.18811
   1118,   2372.63037,   1748.18811
   1119,   2372.63037,   1747.18811
   1120,   2376.46362,   1747.18811
   1121,   2378.29712,   1747.18811
   1122,   2380.13037,   1747.18811
   1123,   2381.96362,   1747.18811
   1124,   2383.79712,   1747.18811
   1125,   2383.79712,   1748.18811
   1126,   2381.96362,   1748.18811
   1127,   2380.13037,   1748.18811
   1128,   2378.29712,   1748.18811
   1129,   2376.46362,   1748.18811
   1130,   2387.63037,   1747.18811
   1131,   2387.63037,   1748.18811
   1132,   2399.63037,   1695.68811
   1133,   2400.63037,   1695.68811
   1134,   2397.63037,   1748.18811
   1135,   2397.63037,   1747.18811
   1136,   2399.63037,   1741.23157
   1137,   2399.63037,   1739.27502
   1138,   2399.63037,   1737.31848
   1139,   2399.63037,   1735.36206
   1140,   2399.63037,   1733.40552
   1141,   2399.63037,   1731.44897
   1142,   2399.63037,   1729.49243
   1143,   2399.63037,   1727.53589
   1144,   2399.63037,   1725.57947
   1145,   2399.63037,   1723.62292
   1146,   2399.63037,   1721.66638
   1147,   2399.63037,   1719.70984
   1148,   2399.63037,    1717.7533
   1149,   2399.63037,   1715.79675
   1150,   2399.63037,   1713.84033
   1151,   2399.63037,   1711.88379
   1152,   2399.63037,   1709.92725
   1153,   2399.63037,    1707.9707
   1154,   2399.63037,   1706.01416
   1155,   2399.63037,   1704.05762
   1156,   2399.63037,    1702.1012
   1157,   2399.63037,   1700.14465
   1158,   2400.63037,   1700.14465
   1159,   2400.63037,    1702.1012
   1160,   2400.63037,   1704.05762
   1161,   2400.63037,   1706.01416
   1162,   2400.63037,    1707.9707
   1163,   2400.63037,   1709.92725
   1164,   2400.63037,   1711.88379
   1165,   2400.63037,   1713.84033
   1166,   2400.63037,   1715.79675
   1167,   2400.63037,    1717.7533
   1168,   2400.63037,   1719.70984
   1169,   2400.63037,   1721.66638
   1170,   2400.63037,   1723.62292
   1171,   2400.63037,   1725.57947
   1172,   2400.63037,   1727.53589
   1173,   2400.63037,   1729.49243
   1174,   2400.63037,   1731.44897
   1175,   2400.63037,   1733.40552
   1176,   2400.63037,   1735.36206
   1177,   2400.63037,   1737.31848
   1178,   2400.63037,   1739.27502
   1179,   2400.63037,   1741.23157
   1180,   2372.63037,   1753.18811
   1181,   2372.63037,   1752.18811
   1182,   2376.46362,   1752.18811
   1183,   2378.29712,   1752.18811
   1184,   2380.13037,   1752.18811
   1185,   2381.96362,   1752.18811
   1186,   2383.79712,   1752.18811
   1187,   2383.79712,   1753.18811
   1188,   2381.96362,   1753.18811
   1189,   2380.13037,   1753.18811
   1190,   2378.29712,   1753.18811
   1191,   2376.46362,   1753.18811
   1192,   2387.63037,   1752.18811
   1193,   2387.63037,   1753.18811
   1194,   2397.63037,   1753.18811
   1195,   2397.63037,   1752.18811
   1196,   2402.63037,   1753.18811
   1197,   2402.63037,   1752.18811
   1198,   2404.63037,   1695.68811
   1199,   2405.63037,   1695.68811
   1200,   2405.63037,   1750.18811
   1201,   2404.63037,   1750.18811
   1202,   2404.63037,   1741.23157
   1203,   2404.63037,   1739.27502
   1204,   2404.63037,   1737.31848
   1205,   2404.63037,   1735.36206
   1206,   2404.63037,   1733.40552
   1207,   2404.63037,   1731.44897
   1208,   2404.63037,   1729.49243
   1209,   2404.63037,   1727.53589
   1210,   2404.63037,   1725.57947
   1211,   2404.63037,   1723.62292
   1212,   2404.63037,   1721.66638
   1213,   2404.63037,   1719.70984
   1214,   2404.63037,    1717.7533
   1215,   2404.63037,   1715.79675
   1216,   2404.63037,   1713.84033
   1217,   2404.63037,   1711.88379
   1218,   2404.63037,   1709.92725
   1219,   2404.63037,    1707.9707
   1220,   2404.63037,   1706.01416
   1221,   2404.63037,   1704.05762
   1222,   2404.63037,    1702.1012
   1223,   2404.63037,   1700.14465
   1224,   2405.63037,   1700.14465
   1225,   2405.63037,    1702.1012
   1226,   2405.63037,   1704.05762
   1227,   2405.63037,   1706.01416
   1228,   2405.63037,    1707.9707
   1229,   2405.63037,   1709.92725
   1230,   2405.63037,   1711.88379
   1231,   2405.63037,   1713.84033
   1232,   2405.63037,   1715.79675
   1233,   2405.63037,    1717.7533
   1234,   2405.63037,   1719.70984
   1235,   2405.63037,   1721.66638
   1236,   2405.63037,   1723.62292
   1237,   2405.63037,   1725.57947
   1238,   2405.63037,   1727.53589
   1239,   2405.63037,   1729.49243
   1240,   2405.63037,   1731.44897
   1241,   2405.63037,   1733.40552
   1242,   2405.63037,   1735.36206
   1243,   2405.63037,   1737.31848
   1244,   2405.63037,   1739.27502
   1245,   2405.63037,   1741.23157
   1246,   2417.63037,   1684.18811
   1247,   2417.63037,   1687.18811
   1248,   2412.63037,   1684.18811
   1249,   2412.63037,   1687.18811
   1250,   2407.63037,   1684.18811
   1251,   2407.63037,   1687.18811
   1252,   2402.63037,   1684.18811
   1253,   2402.63037,   1687.18811
   1254,   2397.63037,   1684.18811
   1255,   2397.63037,   1687.18811
   1256,   2368.63037,   1763.18811
   1257,   2368.63037,   1762.18811
   1258,   2372.63037,   1762.18811
   1259,   2372.63037,   1763.18811
   1260,   2376.46362,   1762.18811
   1261,   2378.29712,   1762.18811
   1262,   2380.13037,   1762.18811
   1263,   2381.96362,   1762.18811
   1264,   2383.79712,   1762.18811
   1265,   2383.79712,   1763.18811
   1266,   2381.96362,   1763.18811
   1267,   2380.13037,   1763.18811
   1268,   2378.29712,   1763.18811
   1269,   2376.46362,   1763.18811
   1270,   2387.63037,   1762.18811
   1271,   2387.63037,   1763.18811
   1272,   2397.63037,   1763.18811
   1273,   2397.63037,   1762.18811
   1274,   2402.63037,   1763.18811
   1275,   2402.63037,   1762.18811
   1276,   2407.63037,   1763.18811
   1277,   2407.63037,   1762.18811
   1278,   2412.63037,   1763.18811
   1279,   2412.63037,   1762.18811
   1280,   2415.63037,   1760.18811
   1281,   2414.63037,   1760.18811
   1282,   2415.63037,   1755.18811
   1283,   2414.63037,   1755.18811
   1284,   2415.63037,   1750.18811
   1285,   2414.63037,   1750.18811
   1286,   2414.63037,   1741.23157
   1287,   2414.63037,   1739.27502
   1288,   2414.63037,   1737.31848
   1289,   2414.63037,   1735.36206
   1290,   2414.63037,   1733.40552
   1291,   2414.63037,   1731.44897
   1292,   2414.63037,   1729.49243
   1293,   2414.63037,   1727.53589
   1294,   2414.63037,   1725.57947
   1295,   2414.63037,   1723.62292
   1296,   2414.63037,   1721.66638
   1297,   2414.63037,   1719.70984
   1298,   2414.63037,    1717.7533
   1299,   2414.63037,   1715.79675
   1300,   2414.63037,   1713.84033
   1301,   2414.63037,   1711.88379
   1302,   2414.63037,   1709.92725
   1303,   2414.63037,    1707.9707
   1304,   2414.63037,   1706.01416
   1305,   2414.63037,   1704.05762
   1306,   2414.63037,    1702.1012
   1307,   2414.63037,   1700.14465
   1308,   2415.63037,   1700.14465
   1309,   2415.63037,    1702.1012
   1310,   2415.63037,   1704.05762
   1311,   2415.63037,   1706.01416
   1312,   2415.63037,    1707.9707
   1313,   2415.63037,   1709.92725
   1314,   2415.63037,   1711.88379
   1315,   2415.63037,   1713.84033
   1316,   2415.63037,   1715.79675
   1317,   2415.63037,    1717.7533
   1318,   2415.63037,   1719.70984
   1319,   2415.63037,   1721.66638
   1320,   2415.63037,   1723.62292
   1321,   2415.63037,   1725.57947
   1322,   2415.63037,   1727.53589
   1323,   2415.63037,   1729.49243
   1324,   2415.63037,   1731.44897
   1325,   2415.63037,   1733.40552
   1326,   2415.63037,   1735.36206
   1327,   2415.63037,   1737.31848
   1328,   2415.63037,   1739.27502
   1329,   2415.63037,   1741.23157
   1330,   2417.63037,   1688.18811
   1331,   2412.63037,   1688.18811
   1332,   2407.63037,   1688.18811
   1333,   2402.63037,   1688.18811
   1334,   2397.63037,   1688.18811
   1335,   2372.63037,   1697.18811
   1336,   2370.63037,   1695.68811
   1337,   2372.63037,   1694.18811
   1338,   2374.63037,   1695.68811
   1339,   2372.63037,   1698.18811
   1340,   2374.63037,   1700.14465
   1341,   2374.63037,    1702.1012
   1342,   2374.63037,   1704.05762
   1343,   2374.63037,   1706.01416
   1344,   2374.63037,    1707.9707
   1345,   2374.63037,   1709.92725
   1346,   2374.63037,   1711.88379
   1347,   2374.63037,   1713.84033
   1348,   2374.63037,   1715.79675
   1349,   2374.63037,    1717.7533
   1350,   2374.63037,   1719.70984
   1351,   2374.63037,   1721.66638
   1352,   2374.63037,   1723.62292
   1353,   2374.63037,   1725.57947
   1354,   2374.63037,   1727.53589
   1355,   2374.63037,   1729.49243
   1356,   2374.63037,   1731.44897
   1357,   2374.63037,   1733.40552
   1358,   2374.63037,   1735.36206
   1359,   2374.63037,   1737.31848
   1360,   2374.63037,   1739.27502
   1361,   2374.63037,   1741.23157
   1362,   2372.63037,   1743.18811
   1363,   2370.63037,   1741.23157
   1364,   2370.63037,   1739.27502
   1365,   2370.63037,   1737.31848
   1366,   2370.63037,   1735.36206
   1367,   2370.63037,   1733.40552
   1368,   2370.63037,   1731.44897
   1369,   2370.63037,   1729.49243
   1370,   2370.63037,   1727.53589
   1371,   2370.63037,   1725.57947
   1372,   2370.63037,   1723.62292
   1373,   2370.63037,   1721.66638
   1374,   2370.63037,   1719.70984
   1375,   2370.63037,    1717.7533
   1376,   2370.63037,   1715.79675
   1377,   2370.63037,   1713.84033
   1378,   2370.63037,   1711.88379
   1379,   2370.63037,   1709.92725
   1380,   2370.63037,    1707.9707
   1381,   2370.63037,   1706.01416
   1382,   2370.63037,   1704.05762
   1383,   2370.63037,    1702.1012
   1384,   2370.63037,   1700.14465
   1385,   2376.46362,   1694.18811
   1386,   2378.29712,   1694.18811
   1387,   2380.13037,   1694.18811
   1388,   2381.96362,   1694.18811
   1389,   2383.79712,   1694.18811
   1390,   2385.63037,   1695.68811
   1391,   2383.79712,   1697.18811
   1392,   2381.96362,   1697.18811
   1393,   2380.13037,   1697.18811
   1394,   2378.29712,   1697.18811
   1395,   2376.46362,   1697.18811
   1396,   2376.46362,   1698.18811
   1397,   2378.29712,   1698.18811
   1398,   2380.13037,   1698.18811
   1399,   2381.96362,   1698.18811
   1400,   2383.79712,   1698.18811
   1401,   2385.63037,   1700.14465
   1402,   2385.63037,    1702.1012
   1403,   2385.63037,   1704.05762
   1404,   2385.63037,   1706.01416
   1405,   2385.63037,    1707.9707
   1406,   2385.63037,   1709.92725
   1407,   2385.63037,   1711.88379
   1408,   2385.63037,   1713.84033
   1409,   2385.63037,   1715.79675
   1410,   2385.63037,    1717.7533
   1411,   2385.63037,   1719.70984
   1412,   2385.63037,   1721.66638
   1413,   2385.63037,   1723.62292
   1414,   2385.63037,   1725.57947
   1415,   2385.63037,   1727.53589
   1416,   2385.63037,   1729.49243
   1417,   2385.63037,   1731.44897
   1418,   2385.63037,   1733.40552
   1419,   2385.63037,   1735.36206
   1420,   2385.63037,   1737.31848
   1421,   2385.63037,   1739.27502
   1422,   2385.63037,   1741.23157
   1423,   2383.79712,   1743.18811
   1424,   2381.96362,   1743.18811
   1425,   2380.13037,   1743.18811
   1426,   2378.29712,   1743.18811
   1427,   2376.46362,   1743.18811
   1428,   2389.63037,   1695.68811
   1429,   2387.63037,   1697.18811
   1430,   2387.63037,   1698.18811
   1431,   2389.63037,   1700.14465
   1432,   2389.63037,    1702.1012
   1433,   2389.63037,   1704.05762
   1434,   2389.63037,   1706.01416
   1435,   2389.63037,    1707.9707
   1436,   2389.63037,   1709.92725
   1437,   2389.63037,   1711.88379
   1438,   2389.63037,   1713.84033
   1439,   2389.63037,   1715.79675
   1440,   2389.63037,    1717.7533
   1441,   2389.63037,   1719.70984
   1442,   2389.63037,   1721.66638
   1443,   2389.63037,   1723.62292
   1444,   2389.63037,   1725.57947
   1445,   2389.63037,   1727.53589
   1446,   2389.63037,   1729.49243
   1447,   2389.63037,   1731.44897
   1448,   2389.63037,   1733.40552
   1449,   2389.63037,   1735.36206
   1450,   2389.63037,   1737.31848
   1451,   2389.63037,   1739.27502
   1452,   2389.63037,   1741.23157
   1453,   2387.63037,   1743.18811
   1454,   2391.63037,   1695.68811
   1455,   2391.63037,   1700.14465
   1456,   2391.63037,    1702.1012
   1457,   2391.63037,   1704.05762
   1458,   2391.63037,   1706.01416
   1459,   2391.63037,    1707.9707
   1460,   2391.63037,   1709.92725
   1461,   2391.63037,   1711.88379
   1462,   2391.63037,   1713.84033
   1463,   2391.63037,   1715.79675
   1464,   2391.63037,    1717.7533
   1465,   2391.63037,   1719.70984
   1466,   2391.63037,   1721.66638
   1467,   2391.63037,   1723.62292
   1468,   2391.63037,   1725.57947
   1469,   2391.63037,   1727.53589
   1470,   2391.63037,   1729.49243
   1471,   2391.63037,   1731.44897
   1472,   2391.63037,   1733.40552
   1473,   2391.63037,   1735.36206
   1474,   2391.63037,   1737.31848
   1475,   2391.63037,   1739.27502
   1476,   2391.63037,   1741.23157
   1477,   2392.63037,   1695.68811
   1478,   2392.63037,   1700.14465
   1479,   2392.63037,    1702.1012
   1480,   2392.63037,   1704.05762
   1481,   2392.63037,   1706.01416
   1482,   2392.63037,    1707.9707
   1483,   2392.63037,   1709.92725
   1484,   2392.63037,   1711.88379
   1485,   2392.63037,   1713.84033
   1486,   2392.63037,   1715.79675
   1487,   2392.63037,    1717.7533
   1488,   2392.63037,   1719.70984
   1489,   2392.63037,   1721.66638
   1490,   2392.63037,   1723.62292
   1491,   2392.63037,   1725.57947
   1492,   2392.63037,   1727.53589
   1493,   2392.63037,   1729.49243
   1494,   2392.63037,   1731.44897
   1495,   2392.63037,   1733.40552
   1496,   2392.63037,   1735.36206
   1497,   2392.63037,   1737.31848
   1498,   2392.63037,   1739.27502
   1499,   2392.63037,   1741.23157
   1500,   2394.63037,   1695.68811
   1501,   2395.63037,   1695.68811
   1502,   2394.63037,   1741.23157
   1503,   2394.63037,   1739.27502
   1504,   2394.63037,   1737.31848
   1505,   2394.63037,   1735.36206
   1506,   2394.63037,   1733.40552
   1507,   2394.63037,   1731.44897
   1508,   2394.63037,   1729.49243
   1509,   2394.63037,   1727.53589
   1510,   2394.63037,   1725.57947
   1511,   2394.63037,   1723.62292
   1512,   2394.63037,   1721.66638
   1513,   2394.63037,   1719.70984
   1514,   2394.63037,    1717.7533
   1515,   2394.63037,   1715.79675
   1516,   2394.63037,   1713.84033
   1517,   2394.63037,   1711.88379
   1518,   2394.63037,   1709.92725
   1519,   2394.63037,    1707.9707
   1520,   2394.63037,   1706.01416
   1521,   2394.63037,   1704.05762
   1522,   2394.63037,    1702.1012
   1523,   2394.63037,   1700.14465
   1524,   2395.63037,   1700.14465
   1525,   2395.63037,    1702.1012
   1526,   2395.63037,   1704.05762
   1527,   2395.63037,   1706.01416
   1528,   2395.63037,    1707.9707
   1529,   2395.63037,   1709.92725
   1530,   2395.63037,   1711.88379
   1531,   2395.63037,   1713.84033
   1532,   2395.63037,   1715.79675
   1533,   2395.63037,    1717.7533
   1534,   2395.63037,   1719.70984
   1535,   2395.63037,   1721.66638
   1536,   2395.63037,   1723.62292
   1537,   2395.63037,   1725.57947
   1538,   2395.63037,   1727.53589
   1539,   2395.63037,   1729.49243
   1540,   2395.63037,   1731.44897
   1541,   2395.63037,   1733.40552
   1542,   2395.63037,   1735.36206
   1543,   2395.63037,   1737.31848
   1544,   2395.63037,   1739.27502
   1545,   2395.63037,   1741.23157
   1546,   2368.63037,   1768.18811
   1547,   2368.63037,   1767.18811
   1548,   2372.63037,   1767.18811
   1549,   2372.63037,   1768.18811
   1550,   2376.46362,   1767.18811
   1551,   2378.29712,   1767.18811
   1552,   2380.13037,   1767.18811
   1553,   2381.96362,   1767.18811
   1554,   2383.79712,   1767.18811
   1555,   2383.79712,   1768.18811
   1556,   2381.96362,   1768.18811
   1557,   2380.13037,   1768.18811
   1558,   2378.29712,   1768.18811
   1559,   2376.46362,   1768.18811
   1560,   2387.63037,   1767.18811
   1561,   2387.63037,   1768.18811
   1562,   2397.63037,   1768.18811
   1563,   2397.63037,   1767.18811
   1564,   2402.63037,   1768.18811
   1565,   2402.63037,   1767.18811
   1566,   2407.63037,   1768.18811
   1567,   2407.63037,   1767.18811
   1568,   2412.63037,   1768.18811
   1569,   2412.63037,   1767.18811
   1570,   2417.63037,   1768.18811
   1571,   2417.63037,   1767.18811
   1572,   2420.63037,   1765.18811
   1573,   2419.63037,   1765.18811
   1574,   2420.63037,   1760.18811
   1575,   2419.63037,   1760.18811
   1576,   2420.63037,   1755.18811
   1577,   2419.63037,   1755.18811
   1578,   2420.63037,   1750.18811
   1579,   2419.63037,   1750.18811
   1580,   2419.63037,   1741.23157
   1581,   2419.63037,   1739.27502
   1582,   2419.63037,   1737.31848
   1583,   2419.63037,   1735.36206
   1584,   2419.63037,   1733.40552
   1585,   2419.63037,   1731.44897
   1586,   2419.63037,   1729.49243
   1587,   2419.63037,   1727.53589
   1588,   2419.63037,   1725.57947
   1589,   2419.63037,   1723.62292
   1590,   2419.63037,   1721.66638
   1591,   2419.63037,   1719.70984
   1592,   2419.63037,    1717.7533
   1593,   2419.63037,   1715.79675
   1594,   2419.63037,   1713.84033
   1595,   2419.63037,   1711.88379
   1596,   2419.63037,   1709.92725
   1597,   2419.63037,    1707.9707
   1598,   2419.63037,   1706.01416
   1599,   2419.63037,   1704.05762
   1600,   2419.63037,    1702.1012
   1601,   2419.63037,   1700.14465
   1602,   2420.63037,   1700.14465
   1603,   2420.63037,    1702.1012
   1604,   2420.63037,   1704.05762
   1605,   2420.63037,   1706.01416
   1606,   2420.63037,    1707.9707
   1607,   2420.63037,   1709.92725
   1608,   2420.63037,   1711.88379
   1609,   2420.63037,   1713.84033
   1610,   2420.63037,   1715.79675
   1611,   2420.63037,    1717.7533
   1612,   2420.63037,   1719.70984
   1613,   2420.63037,   1721.66638
   1614,   2420.63037,   1723.62292
   1615,   2420.63037,   1725.57947
   1616,   2420.63037,   1727.53589
   1617,   2420.63037,   1729.49243
   1618,   2420.63037,   1731.44897
   1619,   2420.63037,   1733.40552
   1620,   2420.63037,   1735.36206
   1621,   2420.63037,   1737.31848
   1622,   2420.63037,   1739.27502
   1623,   2420.63037,   1741.23157
   1624,   2432.63037,   1683.18811
   1625,   2434.63037,   1683.18811
   1626,   2436.63037,   1683.18811
   1627,   2438.63037,   1683.18811
   1628,   2438.63037,   1684.18811
   1629,   2436.63037,   1684.18811
   1630,   2434.63037,   1684.18811
   1631,   2432.63037,   1684.18811
   1632,   2427.63037,   1683.18811
   1633,   2427.63037,   1684.18811
   1634,   2422.63037,   1684.18811
   1635,   2422.63037,   1683.18811
   1636,   2368.63037,   1773.18811
   1637,   2368.63037,   1772.18811
   1638,   2372.63037,   1772.18811
   1639,   2372.63037,   1773.18811
   1640,   2376.46362,   1772.18811
   1641,   2378.29712,   1772.18811
   1642,   2380.13037,   1772.18811
   1643,   2381.96362,   1772.18811
   1644,   2383.79712,   1772.18811
   1645,   2383.79712,   1773.18811
   1646,   2381.96362,   1773.18811
   1647,   2380.13037,   1773.18811
   1648,   2378.29712,   1773.18811
   1649,   2376.46362,   1773.18811
   1650,   2387.63037,   1772.18811
   1651,   2387.63037,   1773.18811
   1652,   2397.63037,   1773.18811
   1653,   2397.63037,   1772.18811
   1654,   2402.63037,   1773.18811
   1655,   2402.63037,   1772.18811
   1656,   2407.63037,   1773.18811
   1657,   2407.63037,   1772.18811
   1658,   2412.63037,   1773.18811
   1659,   2412.63037,   1772.18811
   1660,   2417.63037,   1773.18811
   1661,   2417.63037,   1772.18811
   1662,   2422.63037,   1773.18811
   1663,   2422.63037,   1772.18811
   1664,   2425.63037,   1770.18811
   1665,   2424.63037,   1770.18811
   1666,   2425.63037,   1765.18811
   1667,   2424.63037,   1765.18811
   1668,   2425.63037,   1760.18811
   1669,   2424.63037,   1760.18811
   1670,   2425.63037,   1755.18811
   1671,   2424.63037,   1755.18811
   1672,   2425.63037,   1750.18811
   1673,   2424.63037,   1750.18811
   1674,   2424.63037,   1741.23157
   1675,   2424.63037,   1739.27502
   1676,   2424.63037,   1737.31848
   1677,   2424.63037,   1735.36206
   1678,   2424.63037,   1733.40552
   1679,   2424.63037,   1731.44897
   1680,   2424.63037,   1729.49243
   1681,   2424.63037,   1727.53589
   1682,   2424.63037,   1725.57947
   1683,   2424.63037,   1723.62292
   1684,   2424.63037,   1721.66638
   1685,   2424.63037,   1719.70984
   1686,   2424.63037,    1717.7533
   1687,   2424.63037,   1715.79675
   1688,   2424.63037,   1713.84033
   1689,   2424.63037,   1711.88379
   1690,   2424.63037,   1709.92725
   1691,   2424.63037,    1707.9707
   1692,   2424.63037,   1706.01416
   1693,   2424.63037,   1704.05762
   1694,   2424.63037,    1702.1012
   1695,   2424.63037,   1700.14465
   1696,   2425.63037,   1700.14465
   1697,   2425.63037,    1702.1012
   1698,   2425.63037,   1704.05762
   1699,   2425.63037,   1706.01416
   1700,   2425.63037,    1707.9707
   1701,   2425.63037,   1709.92725
   1702,   2425.63037,   1711.88379
   1703,   2425.63037,   1713.84033
   1704,   2425.63037,   1715.79675
   1705,   2425.63037,    1717.7533
   1706,   2425.63037,   1719.70984
   1707,   2425.63037,   1721.66638
   1708,   2425.63037,   1723.62292
   1709,   2425.63037,   1725.57947
   1710,   2425.63037,   1727.53589
   1711,   2425.63037,   1729.49243
   1712,   2425.63037,   1731.44897
   1713,   2425.63037,   1733.40552
   1714,   2425.63037,   1735.36206
   1715,   2425.63037,   1737.31848
   1716,   2425.63037,   1739.27502
   1717,   2425.63037,   1741.23157
   1718,   2438.63037,   1687.18811
   1719,   2436.63037,   1687.18811
   1720,   2434.63037,   1687.18811
   1721,   2432.63037,   1687.18811
   1722,   2427.63037,   1687.18811
   1723,   2422.63037,   1687.18811
   1724,   2438.63037,   1688.18811
   1725,   2436.63037,   1688.18811
   1726,   2434.63037,   1688.18811
   1727,   2432.63037,   1688.18811
   1728,   2427.63037,   1688.18811
   1729,   2422.63037,   1688.18811
   1730,   2461.63037,   1700.18811
   1731,   2461.63037,   1702.18811
   1732,   2461.63037,   1704.18811
   1733,   2461.63037,   1706.18811
   1734,   2461.63037,   1708.18811
   1735,   2461.63037,   1710.18811
   1736,   2461.63037,   1712.18811
   1737,   2461.63037,   1714.18811
   1738,   2461.63037,   1716.18811
   1739,   2461.63037,   1718.18811
   1740,   2461.63037,   1720.18811
   1741,   2461.63037,   1722.18811
   1742,   2461.63037,   1724.18811
   1743,   2461.63037,   1726.18811
   1744,   2461.63037,   1728.18811
   1745,   2461.63037,   1730.18811
   1746,   2461.63037,   1732.18811
   1747,   2461.63037,   1734.18811
   1748,   2461.63037,   1736.18811
   1749,   2460.63037,   1736.18811
   1750,   2460.63037,   1734.18811
   1751,   2460.63037,   1732.18811
   1752,   2460.63037,   1730.18811
   1753,   2460.63037,   1728.18811
   1754,   2460.63037,   1726.18811
   1755,   2460.63037,   1724.18811
   1756,   2460.63037,   1722.18811
   1757,   2460.63037,   1720.18811
   1758,   2460.63037,   1718.18811
   1759,   2460.63037,   1716.18811
   1760,   2460.63037,   1714.18811
   1761,   2460.63037,   1712.18811
   1762,   2460.63037,   1710.18811
   1763,   2460.63037,   1708.18811
   1764,   2460.63037,   1706.18811
   1765,   2460.63037,   1704.18811
   1766,   2460.63037,   1702.18811
   1767,   2460.63037,   1700.18811
   1768,   2448.63037,   1688.18811
   1769,   2446.63037,   1688.18811
   1770,   2444.63037,   1688.18811
   1771,   2442.63037,   1688.18811
   1772,   2442.63037,   1687.18811
   1773,   2444.63037,   1687.18811
   1774,   2446.63037,   1687.18811
   1775,   2448.63037,   1687.18811
   1776,   2461.63037,   1695.68811
   1777,   2460.63037,   1695.68811
   1778,   2453.63037,   1688.18811
   1779,   2453.63037,   1687.18811
   1780,   2458.63037,   1687.18811
   1781,   2458.63037,   1688.18811
   1782,   2463.13037,   1688.18811
   1783,   2463.13037,   1687.18811
   1784,   2467.63037,   1687.18811
   1785,   2467.63037,   1688.18811
   1786,   2501.63037,   1700.18811
   1787,   2501.63037,   1702.18811
   1788,   2501.63037,   1704.18811
   1789,   2501.63037,   1706.18811
   1790,   2501.63037,   1708.18811
   1791,   2501.63037,   1710.18811
   1792,   2501.63037,   1712.18811
   1793,   2501.63037,   1714.18811
   1794,   2501.63037,   1716.18811
   1795,   2501.63037,   1718.18811
   1796,   2501.63037,   1720.18811
   1797,   2501.63037,   1722.18811
   1798,   2501.63037,   1724.18811
   1799,   2501.63037,   1726.18811
   1800,   2501.63037,   1728.18811
   1801,   2500.63037,   1728.18811
   1802,   2500.63037,   1726.18811
   1803,   2500.63037,   1724.18811
   1804,   2500.63037,   1722.18811
   1805,   2500.63037,   1720.18811
   1806,   2500.63037,   1718.18811
   1807,   2500.63037,   1716.18811
   1808,   2500.63037,   1714.18811
   1809,   2500.63037,   1712.18811
   1810,   2500.63037,   1710.18811
   1811,   2500.63037,   1708.18811
   1812,   2500.63037,   1706.18811
   1813,   2500.63037,   1704.18811
   1814,   2500.63037,   1702.18811
   1815,   2500.63037,   1700.18811
   1816,   2488.63037,   1688.18811
   1817,   2486.63037,   1688.18811
   1818,   2484.63037,   1688.18811
   1819,   2482.63037,   1688.18811
   1820,   2480.63037,   1688.18811
   1821,   2478.63037,   1688.18811
   1822,   2476.63037,   1688.18811
   1823,   2474.63037,   1688.18811
   1824,   2472.63037,   1688.18811
   1825,   2472.63037,   1687.18811
   1826,   2474.63037,   1687.18811
   1827,   2476.63037,   1687.18811
   1828,   2478.63037,   1687.18811
   1829,   2480.63037,   1687.18811
   1830,   2482.63037,   1687.18811
   1831,   2484.63037,   1687.18811
   1832,   2486.63037,   1687.18811
   1833,   2488.63037,   1687.18811
   1834,   2500.63037,   1695.68811
   1835,   2501.63037,   1695.68811
   1836,   2493.63037,   1688.18811
   1837,   2493.63037,   1687.18811
   1838,   2387.63037,   1683.18811
   1839,   2387.63037,   1684.18811
   1840,   2376.46362,   1683.18811
   1841,   2378.29712,   1683.18811
   1842,   2380.13037,   1683.18811
   1843,   2381.96362,   1683.18811
   1844,   2383.79712,   1683.18811
   1845,   2383.79712,   1684.18811
   1846,   2381.96362,   1684.18811
   1847,   2380.13037,   1684.18811
   1848,   2378.29712,   1684.18811
   1849,   2376.46362,   1684.18811
   1850,   2387.63037,   1679.18811
   1851,   2389.63037,   1681.18811
   1852,   2385.63037,   1681.18811
   1853,   2376.46362,   1679.18811
   1854,   2378.29712,   1679.18811
   1855,   2380.13037,   1679.18811
   1856,   2381.96362,   1679.18811
   1857,   2383.79712,   1679.18811
   1858,   2374.63037,   1681.18811
   1859,   2387.63037,   1678.18811
   1860,   2376.47681,   1678.18811
   1861,   2378.30737,   1678.18811
   1862,   2380.13818,   1678.18811
   1863,   2381.96899,   1678.18811
   1864,   2383.79956,   1678.18811
   1865,   2397.63037,   1678.18811
   1866,   2397.63037,   1679.18811
   1867,   2372.63818,   1678.18811
   1868,   2372.63037,   1679.18811
   1869,   2368.63037,   1678.18811
   1870,   2368.63037,   1679.18811
   1871,   2402.63037,   1678.18811
   1872,   2402.63037,   1679.18811
   1873,   2363.63037,   1679.18811
   1874,   2363.63037,   1678.18811
   1875,   2407.63037,   1678.18811
   1876,   2407.63037,   1679.18811
   1877,   2360.63037,   1681.18811
   1878,   2361.63037,   1681.18811
   1879,   2412.63037,   1678.18811
   1880,   2412.63037,   1679.18811
   1881,   2417.63037,   1678.18811
   1882,   2417.63037,   1679.18811
   1883,   2422.63037,   1678.18811
   1884,   2422.63037,   1679.18811
   1885,   2427.63037,   1678.18811
   1886,   2427.63037,   1679.18811
   1887,   2361.63037,   1695.68811
   1888,   2360.63037,   1695.68811
   1889,   2432.63037,   1678.18811
   1890,   2434.63037,   1678.18811
   1891,   2436.63037,   1678.18811
   1892,   2438.63037,   1678.18811
   1893,   2438.63037,   1679.18811
   1894,   2436.63037,   1679.18811
   1895,   2434.63037,   1679.18811
   1896,   2432.63037,   1679.18811
   1897,   2448.63037,   1679.18811
   1898,   2446.63037,   1679.18811
   1899,   2444.63037,   1679.18811
   1900,   2442.63037,   1679.18811
   1901,   2442.63037,   1678.18811
   1902,   2444.63037,   1678.18811
   1903,   2446.63037,   1678.18811
   1904,   2448.63037,   1678.18811
   1905,   2360.63037,   1741.23157
   1906,   2360.63037,   1739.27502
   1907,   2360.63037,   1737.31848
   1908,   2360.63037,   1735.36206
   1909,   2360.63037,   1733.40552
   1910,   2360.63037,   1731.44897
   1911,   2360.63037,   1729.49243
   1912,   2360.63037,   1727.53589
   1913,   2360.63037,   1725.57947
   1914,   2360.63037,   1723.62292
   1915,   2360.63037,   1721.66638
   1916,   2360.63037,   1719.70984
   1917,   2360.63037,    1717.7533
   1918,   2360.63037,   1715.79675
   1919,   2360.63037,   1713.84033
   1920,   2360.63037,   1711.88379
   1921,   2360.63037,   1709.92725
   1922,   2360.63037,    1707.9707
   1923,   2360.63037,   1706.01416
   1924,   2360.63037,   1704.05762
   1925,   2360.63037,    1702.1012
   1926,   2360.63037,   1700.14465
   1927,   2361.63037,   1700.14465
   1928,   2361.63037,    1702.1012
   1929,   2361.63037,   1704.05762
   1930,   2361.63037,   1706.01416
   1931,   2361.63037,    1707.9707
   1932,   2361.63037,   1709.92725
   1933,   2361.63037,   1711.88379
   1934,   2361.63037,   1713.84033
   1935,   2361.63037,   1715.79675
   1936,   2361.63037,    1717.7533
   1937,   2361.63037,   1719.70984
   1938,   2361.63037,   1721.66638
   1939,   2361.63037,   1723.62292
   1940,   2361.63037,   1725.57947
   1941,   2361.63037,   1727.53589
   1942,   2361.63037,   1729.49243
   1943,   2361.63037,   1731.44897
   1944,   2361.63037,   1733.40552
   1945,   2361.63037,   1735.36206
   1946,   2361.63037,   1737.31848
   1947,   2361.63037,   1739.27502
   1948,   2361.63037,   1741.23157
   1949,   2360.63037,   1745.18811
   1950,   2361.63037,   1745.18811
   1951,   2453.63037,   1679.18811
   1952,   2453.63037,   1678.18811
   1953,   2360.63037,   1750.18811
   1954,   2361.63037,   1750.18811
   1955,   2458.63037,   1678.18811
   1956,   2458.63037,   1679.18811
   1957,   2360.63037,   1755.18811
   1958,   2361.63037,   1755.18811
   1959,   2463.13037,   1679.18811
   1960,   2463.13037,   1678.18811
   1961,   2360.63037,   1760.18811
   1962,   2361.63037,   1760.18811
   1963,   2467.63037,   1678.18811
   1964,   2467.63037,   1679.18811
   1965,   2360.63037,   1765.18811
   1966,   2361.63037,   1765.18811
   1967,   2488.63037,   1679.18811
   1968,   2486.63037,   1679.18811
   1969,   2484.63037,   1679.18811
   1970,   2482.63037,   1679.18811
   1971,   2480.63037,   1679.18811
   1972,   2478.63037,   1679.18811
   1973,   2476.63037,   1679.18811
   1974,   2474.63037,   1679.18811
   1975,   2472.63037,   1679.18811
   1976,   2472.63037,   1678.18811
   1977,   2474.63037,   1678.18811
   1978,   2476.63037,   1678.18811
   1979,   2478.63037,   1678.18811
   1980,   2480.63037,   1678.18811
   1981,   2482.63037,   1678.18811
   1982,   2484.63037,   1678.18811
   1983,   2486.63037,   1678.18811
   1984,   2488.63037,   1678.18811
   1985,   2360.63037,   1770.18811
   1986,   2361.63037,   1770.18811
   1987,   2493.63037,   1679.18811
   1988,   2493.63037,   1678.18811
   1989,   2360.63037,   1775.18811
   1990,   2361.63037,   1775.18811
   1991,   2363.63037,   1777.18811
   1992,   2363.63037,   1778.18811
   1993,   2368.63037,   1777.18811
   1994,   2368.63037,   1778.18811
   1995,   2372.63037,   1777.18811
   1996,   2372.63037,   1778.18811
   1997,   2376.46362,   1777.18811
   1998,   2378.29712,   1777.18811
   1999,   2380.13037,   1777.18811
   2000,   2381.96362,   1777.18811
   2001,   2383.79712,   1777.18811
   2002,   2383.79712,   1778.18811
   2003,   2381.96362,   1778.18811
   2004,   2380.13037,   1778.18811
   2005,   2378.29712,   1778.18811
   2006,   2376.46362,   1778.18811
   2007,   2507.63037,   1678.18811
   2008,   2507.63037,   1679.18811
   2009,   2387.63037,   1777.18811
   2010,   2387.63037,   1778.18811
   2011,   2509.63037,   1681.18811
   2012,   2510.63037,   1681.18811
   2013,   2397.63037,   1778.18811
   2014,   2397.63037,   1777.18811
   2015,   2402.63037,   1778.18811
   2016,   2402.63037,   1777.18811
   2017,   2407.63037,   1778.18811
   2018,   2407.63037,   1777.18811
   2019,   2509.63037,   1695.68811
   2020,   2510.63037,   1695.68811
   2021,   2412.63037,   1778.18811
   2022,   2412.63037,   1777.18811
   2023,   2509.63037,   1728.18811
   2024,   2509.63037,   1726.18811
   2025,   2509.63037,   1724.18811
   2026,   2509.63037,   1722.18811
   2027,   2509.63037,   1720.18811
   2028,   2509.63037,   1718.18811
   2029,   2509.63037,   1716.18811
   2030,   2509.63037,   1714.18811
   2031,   2509.63037,   1712.18811
   2032,   2509.63037,   1710.18811
   2033,   2509.63037,   1708.18811
   2034,   2509.63037,   1706.18811
   2035,   2509.63037,   1704.18811
   2036,   2509.63037,   1702.18811
   2037,   2509.63037,   1700.18811
   2038,   2510.63037,   1700.18811
   2039,   2510.63037,   1702.18811
   2040,   2510.63037,   1704.18811
   2041,   2510.63037,   1706.18811
   2042,   2510.63037,   1708.18811
   2043,   2510.63037,   1710.18811
   2044,   2510.63037,   1712.18811
   2045,   2510.63037,   1714.18811
   2046,   2510.63037,   1716.18811
   2047,   2510.63037,   1718.18811
   2048,   2510.63037,   1720.18811
   2049,   2510.63037,   1722.18811
   2050,   2510.63037,   1724.18811
   2051,   2510.63037,   1726.18811
   2052,   2510.63037,   1728.18811
   2053,   2510.63037,   1732.18811
   2054,   2510.63037,   1734.18811
   2055,   2510.63037,   1736.18811
   2056,   2510.63037,   1738.18811
   2057,   2509.63037,   1738.18811
   2058,   2509.63037,   1736.18811
   2059,   2509.63037,   1734.18811
   2060,   2509.63037,   1732.18811
   2061,   2417.63037,   1778.18811
   2062,   2417.63037,   1777.18811
   2063,   2510.63037,   1742.18811
   2064,   2510.63037,   1744.18811
   2065,   2510.63037,   1746.18811
   2066,   2510.63037,   1748.18811
   2067,   2510.63037,   1750.18811
   2068,   2510.63037,   1752.18811
   2069,   2510.63037,   1754.18811
   2070,   2510.63037,   1756.18811
   2071,   2510.63037,   1758.18811
   2072,   2510.63037,   1760.18811
   2073,   2510.63037,   1762.18811
   2074,   2510.63037,   1764.18811
   2075,   2510.63037,   1766.18811
   2076,   2510.63037,   1768.18811
   2077,   2510.63037,   1770.18811
   2078,   2510.63037,   1772.18811
   2079,   2510.63037,   1774.18811
   2080,   2510.63037,   1776.18811
   2081,   2510.63037,   1778.18811
   2082,   2510.63037,   1780.18811
   2083,   2510.63037,   1782.18811
   2084,   2510.63037,   1784.18811
   2085,   2510.63037,   1786.18811
   2086,   2509.63037,   1786.18811
   2087,   2509.63037,   1784.18811
   2088,   2509.63037,   1782.18811
   2089,   2509.63037,   1780.18811
   2090,   2509.63037,   1778.18811
   2091,   2509.63037,   1776.18811
   2092,   2509.63037,   1774.18811
   2093,   2509.63037,   1772.18811
   2094,   2509.63037,   1770.18811
   2095,   2509.63037,   1768.18811
   2096,   2509.63037,   1766.18811
   2097,   2509.63037,   1764.18811
   2098,   2509.63037,   1762.18811
   2099,   2509.63037,   1760.18811
   2100,   2509.63037,   1758.18811
   2101,   2509.63037,   1756.18811
   2102,   2509.63037,   1754.18811
   2103,   2509.63037,   1752.18811
   2104,   2509.63037,   1750.18811
   2105,   2509.63037,   1748.18811
   2106,   2509.63037,   1746.18811
   2107,   2509.63037,   1744.18811
   2108,   2509.63037,   1742.18811
   2109,   2509.63037,   1790.18811
   2110,   2510.63037,   1790.18811
   2111,   2422.63037,   1778.18811
   2112,   2422.63037,   1777.18811
   2113,   2509.63037,   1795.18811
   2114,   2510.63037,   1795.18811
   2115,   2427.63037,   1778.18811
   2116,   2427.63037,   1777.18811
   2117,   2507.63037,   1798.18811
   2118,   2507.63037,   1797.18811
   2119,   2430.63037,   1775.18811
   2120,   2429.63037,   1775.18811
   2121,   2430.63037,   1770.18811
   2122,   2429.63037,   1770.18811
   2123,   2430.63037,   1765.18811
   2124,   2429.63037,   1765.18811
   2125,   2430.63037,   1760.18811
   2126,   2429.63037,   1760.18811
   2127,   2493.63037,   1798.18811
   2128,   2493.63037,   1797.18811
   2129,   2430.63037,   1755.18811
   2130,   2429.63037,   1755.18811
   2131,   2491.63037,   1795.18811
   2132,   2490.63037,   1795.18811
   2133,   2430.63037,   1750.18811
   2134,   2429.63037,   1750.18811
   2135,   2491.63037,   1790.18811
   2136,   2490.63037,   1790.18811
   2137,   2430.63037,   1745.18811
   2138,   2429.63037,   1745.18811
   2139,   2490.63037,   1786.18811
   2140,   2490.63037,   1784.18811
   2141,   2490.63037,   1782.18811
   2142,   2490.63037,   1780.18811
   2143,   2490.63037,   1778.18811
   2144,   2490.63037,   1776.18811
   2145,   2490.63037,   1774.18811
   2146,   2490.63037,   1772.18811
   2147,   2490.63037,   1770.18811
   2148,   2490.63037,   1768.18811
   2149,   2490.63037,   1766.18811
   2150,   2490.63037,   1764.18811
   2151,   2490.63037,   1762.18811
   2152,   2490.63037,   1760.18811
   2153,   2490.63037,   1758.18811
   2154,   2490.63037,   1756.18811
   2155,   2490.63037,   1754.18811
   2156,   2490.63037,   1752.18811
   2157,   2490.63037,   1750.18811
   2158,   2490.63037,   1748.18811
   2159,   2490.63037,   1746.18811
   2160,   2490.63037,   1744.18811
   2161,   2490.63037,   1742.18811
   2162,   2491.63037,   1742.18811
   2163,   2491.63037,   1744.18811
   2164,   2491.63037,   1746.18811
   2165,   2491.63037,   1748.18811
   2166,   2491.63037,   1750.18811
   2167,   2491.63037,   1752.18811
   2168,   2491.63037,   1754.18811
   2169,   2491.63037,   1756.18811
   2170,   2491.63037,   1758.18811
   2171,   2491.63037,   1760.18811
   2172,   2491.63037,   1762.18811
   2173,   2491.63037,   1764.18811
   2174,   2491.63037,   1766.18811
   2175,   2491.63037,   1768.18811
   2176,   2491.63037,   1770.18811
   2177,   2491.63037,   1772.18811
   2178,   2491.63037,   1774.18811
   2179,   2491.63037,   1776.18811
   2180,   2491.63037,   1778.18811
   2181,   2491.63037,   1780.18811
   2182,   2491.63037,   1782.18811
   2183,   2491.63037,   1784.18811
   2184,   2491.63037,   1786.18811
   2185,   2429.63037,   1741.23157
   2186,   2429.63037,   1739.27502
   2187,   2429.63037,   1737.31848
   2188,   2429.63037,   1735.36206
   2189,   2429.63037,   1733.40552
   2190,   2429.63037,   1731.44897
   2191,   2429.63037,   1729.49243
   2192,   2429.63037,   1727.53589
   2193,   2429.63037,   1725.57947
   2194,   2429.63037,   1723.62292
   2195,   2429.63037,   1721.66638
   2196,   2429.63037,   1719.70984
   2197,   2429.63037,    1717.7533
   2198,   2429.63037,   1715.79675
   2199,   2429.63037,   1713.84033
   2200,   2429.63037,   1711.88379
   2201,   2429.63037,   1709.92725
   2202,   2429.63037,    1707.9707
   2203,   2429.63037,   1706.01416
   2204,   2429.63037,   1704.05762
   2205,   2429.63037,    1702.1012
   2206,   2429.63037,   1700.14465
   2207,   2430.63037,   1700.14465
   2208,   2430.63037,    1702.1012
   2209,   2430.63037,   1704.05762
   2210,   2430.63037,   1706.01416
   2211,   2430.63037,    1707.9707
   2212,   2430.63037,   1709.92725
   2213,   2430.63037,   1711.88379
   2214,   2430.63037,   1713.84033
   2215,   2430.63037,   1715.79675
   2216,   2430.63037,    1717.7533
   2217,   2430.63037,   1719.70984
   2218,   2430.63037,   1721.66638
   2219,   2430.63037,   1723.62292
   2220,   2430.63037,   1725.57947
   2221,   2430.63037,   1727.53589
   2222,   2430.63037,   1729.49243
   2223,   2430.63037,   1731.44897
   2224,   2430.63037,   1733.40552
   2225,   2430.63037,   1735.36206
   2226,   2430.63037,   1737.31848
   2227,   2430.63037,   1739.27502
   2228,   2430.63037,   1741.23157
   2229,   2490.63037,   1738.18811
   2230,   2490.63037,   1736.18811
   2231,   2490.63037,   1734.18811
   2232,   2490.63037,   1732.18811
   2233,   2491.63037,   1732.18811
   2234,   2491.63037,   1734.18811
   2235,   2491.63037,   1736.18811
   2236,   2491.63037,   1738.18811
   2237,   2490.63037,   1728.18811
   2238,   2490.63037,   1726.18811
   2239,   2490.63037,   1724.18811
   2240,   2490.63037,   1722.18811
   2241,   2490.63037,   1720.18811
   2242,   2490.63037,   1718.18811
   2243,   2490.63037,   1716.18811
   2244,   2490.63037,   1714.18811
   2245,   2490.63037,   1712.18811
   2246,   2490.63037,   1710.18811
   2247,   2490.63037,   1708.18811
   2248,   2490.63037,   1706.18811
   2249,   2490.63037,   1704.18811
   2250,   2490.63037,   1702.18811
   2251,   2490.63037,   1700.18811
   2252,   2491.63037,   1700.18811
   2253,   2491.63037,   1702.18811
   2254,   2491.63037,   1704.18811
   2255,   2491.63037,   1706.18811
   2256,   2491.63037,   1708.18811
   2257,   2491.63037,   1710.18811
   2258,   2491.63037,   1712.18811
   2259,   2491.63037,   1714.18811
   2260,   2491.63037,   1716.18811
   2261,   2491.63037,   1718.18811
   2262,   2491.63037,   1720.18811
   2263,   2491.63037,   1722.18811
   2264,   2491.63037,   1724.18811
   2265,   2491.63037,   1726.18811
   2266,   2491.63037,   1728.18811
   2267,   2432.63037,   1697.18811
   2268,   2434.63037,   1697.18811
   2269,   2436.63037,   1697.18811
   2270,   2438.63037,   1697.18811
   2271,   2438.63037,   1698.18811
   2272,   2436.63037,   1698.18811
   2273,   2434.63037,   1698.18811
   2274,   2432.63037,   1698.18811
   2275,   2442.63037,   1697.18811
   2276,   2444.63037,   1697.18811
   2277,   2446.63037,   1697.18811
   2278,   2448.63037,   1697.18811
   2279,   2448.63037,   1698.18811
   2280,   2446.63037,   1698.18811
   2281,   2444.63037,   1698.18811
   2282,   2442.63037,   1698.18811
   2283,   2488.63037,   1698.18811
   2284,   2486.63037,   1698.18811
   2285,   2484.63037,   1698.18811
   2286,   2482.63037,   1698.18811
   2287,   2480.63037,   1698.18811
   2288,   2478.63037,   1698.18811
   2289,   2476.63037,   1698.18811
   2290,   2474.63037,   1698.18811
   2291,   2472.63037,   1698.18811
   2292,   2472.63037,   1697.18811
   2293,   2474.63037,   1697.18811
   2294,   2476.63037,   1697.18811
   2295,   2478.63037,   1697.18811
   2296,   2480.63037,   1697.18811
   2297,   2482.63037,   1697.18811
   2298,   2484.63037,   1697.18811
   2299,   2486.63037,   1697.18811
   2300,   2488.63037,   1697.18811
   2301,   2451.63037,   1700.18811
   2302,   2451.63037,   1702.18811
   2303,   2451.63037,   1704.18811
   2304,   2451.63037,   1706.18811
   2305,   2451.63037,   1708.18811
   2306,   2451.63037,   1710.18811
   2307,   2451.63037,   1712.18811
   2308,   2451.63037,   1714.18811
   2309,   2451.63037,   1716.18811
   2310,   2451.63037,   1718.18811
   2311,   2451.63037,   1720.18811
   2312,   2451.63037,   1722.18811
   2313,   2451.63037,   1724.18811
   2314,   2451.63037,   1726.18811
   2315,   2451.63037,   1728.18811
   2316,   2451.63037,   1730.18811
   2317,   2451.63037,   1732.18811
   2318,   2451.63037,   1734.18811
   2319,   2451.63037,   1736.18811
   2320,   2450.63037,   1736.18811
   2321,   2450.63037,   1734.18811
   2322,   2450.63037,   1732.18811
   2323,   2450.63037,   1730.18811
   2324,   2450.63037,   1728.18811
   2325,   2450.63037,   1726.18811
   2326,   2450.63037,   1724.18811
   2327,   2450.63037,   1722.18811
   2328,   2450.63037,   1720.18811
   2329,   2450.63037,   1718.18811
   2330,   2450.63037,   1716.18811
   2331,   2450.63037,   1714.18811
   2332,   2450.63037,   1712.18811
   2333,   2450.63037,   1710.18811
   2334,   2450.63037,   1708.18811
   2335,   2450.63037,   1706.18811
   2336,   2450.63037,   1704.18811
   2337,   2450.63037,   1702.18811
   2338,   2450.63037,   1700.18811
   2339,   2469.63037,   1736.18811
   2340,   2469.63037,   1734.18811
   2341,   2469.63037,   1732.18811
   2342,   2469.63037,   1730.18811
   2343,   2469.63037,   1728.18811
   2344,   2469.63037,   1726.18811
   2345,   2469.63037,   1724.18811
   2346,   2469.63037,   1722.18811
   2347,   2469.63037,   1720.18811
   2348,   2469.63037,   1718.18811
   2349,   2469.63037,   1716.18811
   2350,   2469.63037,   1714.18811
   2351,   2469.63037,   1712.18811
   2352,   2469.63037,   1710.18811
   2353,   2469.63037,   1708.18811
   2354,   2469.63037,   1706.18811
   2355,   2469.63037,   1704.18811
   2356,   2469.63037,   1702.18811
   2357,   2469.63037,   1700.18811
   2358,   2470.63037,   1700.18811
   2359,   2470.63037,   1702.18811
   2360,   2470.63037,   1704.18811
   2361,   2470.63037,   1706.18811
   2362,   2470.63037,   1708.18811
   2363,   2470.63037,   1710.18811
   2364,   2470.63037,   1712.18811
   2365,   2470.63037,   1714.18811
   2366,   2470.63037,   1716.18811
   2367,   2470.63037,   1718.18811
   2368,   2470.63037,   1720.18811
   2369,   2470.63037,   1722.18811
   2370,   2470.63037,   1724.18811
   2371,   2470.63037,   1726.18811
   2372,   2470.63037,   1728.18811
   2373,   2470.63037,   1730.18811
   2374,   2470.63037,   1732.18811
   2375,   2470.63037,   1734.18811
   2376,   2470.63037,   1736.18811
   2377,   2450.63037,   1740.18811
   2378,   2451.63037,   1740.18811
   2379,   2470.63037,   1740.18811
   2380,   2469.63037,   1740.18811
   2381,   2450.63037,   1745.18811
   2382,   2451.63037,   1745.18811
   2383,   2470.63037,   1745.18811
   2384,   2469.63037,   1745.18811
   2385,   2453.63037,   1747.18811
   2386,   2453.63037,   1748.18811
   2387,   2467.63037,   1747.18811
   2388,   2467.63037,   1748.18811
   2389,   2458.63037,   1747.18811
   2390,   2458.63037,   1748.18811
   2391,   2463.13037,   1747.18811
   2392,   2463.13037,   1748.18811
   2393,   2391.63037,   1681.18811
   2394,   2392.63037,   1681.18811
   2395,   2394.63037,   1681.18811
   2396,   2395.63037,   1681.18811
   2397,   2399.63037,   1681.18811
   2398,   2397.63037,   1683.18811
   2399,   2400.63037,   1681.18811
   2400,   2404.63037,   1681.18811
   2401,   2402.63037,   1683.18811
   2402,   2405.63037,   1681.18811
   2403,   2409.63037,   1681.18811
   2404,   2407.63037,   1683.18811
   2405,   2410.63037,   1681.18811
   2406,   2414.63037,   1681.18811
   2407,   2412.63037,   1683.18811
   2408,   2415.63037,   1681.18811
   2409,   2419.63037,   1681.18811
   2410,   2417.63037,   1683.18811
   2411,   2420.63037,   1681.18811
   2412,   2424.63037,   1681.18811
   2413,   2425.63037,   1681.18811
   2414,   2429.63037,   1681.18811
   2415,   2430.63037,   1681.18811
   2416,   2440.63037,   1681.18811
   2417,   2450.63037,   1681.18811
   2418,   2448.63037,   1683.18811
   2419,   2446.63037,   1683.18811
   2420,   2444.63037,   1683.18811
   2421,   2442.63037,   1683.18811
   2422,   2451.63037,   1681.18811
   2423,   2455.63037,   1681.18811
   2424,   2453.63037,   1683.18811
   2425,   2456.63037,   1681.18811
   2426,   2460.63037,   1681.18811
   2427,   2458.63037,   1683.18811
   2428,   2461.63037,   1681.18811
   2429,   2464.63037,   1681.18811
   2430,   2463.13037,   1683.18811
   2431,   2465.63037,   1681.18811
   2432,   2469.63037,   1681.18811
   2433,   2467.63037,   1683.18811
   2434,   2470.63037,   1681.18811
   2435,   2490.63037,   1681.18811
   2436,   2488.63037,   1683.18811
   2437,   2486.63037,   1683.18811
   2438,   2484.63037,   1683.18811
   2439,   2482.63037,   1683.18811
   2440,   2480.63037,   1683.18811
   2441,   2478.63037,   1683.18811
   2442,   2476.63037,   1683.18811
   2443,   2474.63037,   1683.18811
   2444,   2472.63037,   1683.18811
   2445,   2491.63037,   1681.18811
   2446,   2495.63037,   1681.18811
   2447,   2493.63037,   1683.18811
   2448,   2496.63037,   1681.18811
   2449,   2497.63037,   1681.18811
   2450,   2500.63037,   1681.18811
   2451,   2501.63037,   1681.18811
   2452,   2502.63037,   1681.18811
   2453,   2504.63037,   1681.18811
   2454,   2505.63037,   1681.18811
   2455,   2507.63037,   1683.18811
   2456,   2507.63037,   1684.18811
   2457,   2507.63037,   1687.18811
   2458,   2507.63037,   1688.18811
   2459,   2507.63037,   1690.18811
   2460,   2507.63037,   1692.18811
   2461,   2507.63037,   1693.18811
   2462,   2507.63037,   1694.18811
   2463,   2507.63037,   1697.18811
   2464,   2505.63037,   1695.68811
   2465,   2376.46362,   1687.18811
   2466,   2378.29712,   1687.18811
   2467,   2380.13037,   1687.18811
   2468,   2381.96362,   1687.18811
   2469,   2383.79712,   1687.18811
   2470,   2383.79712,   1688.18811
   2471,   2381.96362,   1688.18811
   2472,   2380.13037,   1688.18811
   2473,   2378.29712,   1688.18811
   2474,   2376.46362,   1688.18811
   2475,   2507.63037,   1698.18811
   2476,   2372.63037,   1687.18811
   2477,   2372.63037,   1688.18811
   2478,   2507.63037,   1730.18811
   2479,   2505.63037,   1728.18811
   2480,   2505.63037,   1726.18811
   2481,   2505.63037,   1724.18811
   2482,   2505.63037,   1722.18811
   2483,   2505.63037,   1720.18811
   2484,   2505.63037,   1718.18811
   2485,   2505.63037,   1716.18811
   2486,   2505.63037,   1714.18811
   2487,   2505.63037,   1712.18811
   2488,   2505.63037,   1710.18811
   2489,   2505.63037,   1708.18811
   2490,   2505.63037,   1706.18811
   2491,   2505.63037,   1704.18811
   2492,   2505.63037,   1702.18811
   2493,   2505.63037,   1700.18811
   2494,   2372.63037,   1684.18811
   2495,   2507.63037,   1740.18811
   2496,   2505.63037,   1738.18811
   2497,   2505.63037,   1736.18811
   2498,   2505.63037,   1734.18811
   2499,   2505.63037,   1732.18811
   2500,   2372.63037,   1683.18811
   2501,   2507.63037,   1788.18811
   2502,   2505.63037,   1786.18811
   2503,   2505.63037,   1784.18811
   2504,   2505.63037,   1782.18811
   2505,   2505.63037,   1780.18811
   2506,   2505.63037,   1778.18811
   2507,   2505.63037,   1776.18811
   2508,   2505.63037,   1774.18811
   2509,   2505.63037,   1772.18811
   2510,   2505.63037,   1770.18811
   2511,   2505.63037,   1768.18811
   2512,   2505.63037,   1766.18811
   2513,   2505.63037,   1764.18811
   2514,   2505.63037,   1762.18811
   2515,   2505.63037,   1760.18811
   2516,   2505.63037,   1758.18811
   2517,   2505.63037,   1756.18811
   2518,   2505.63037,   1754.18811
   2519,   2505.63037,   1752.18811
   2520,   2505.63037,   1750.18811
   2521,   2505.63037,   1748.18811
   2522,   2505.63037,   1746.18811
   2523,   2505.63037,   1744.18811
   2524,   2505.63037,   1742.18811
   2525,   2370.63037,   1681.18811
   2526,   2507.63037,   1792.18811
   2527,   2505.63037,   1790.18811
   2528,   2366.63037,   1681.18811
   2529,   2368.63037,   1683.18811
   2530,   2507.63037,   1793.18811
   2531,   2365.63037,   1681.18811
   2532,   2505.63037,   1795.18811
   2533,   2363.63037,   1683.18811
   2534,   2504.63037,   1795.18811
   2535,   2363.63037,   1684.18811
   2536,   2502.63037,   1795.18811
   2537,   2363.63037,   1687.18811
   2538,   2501.63037,   1795.18811
   2539,   2363.63037,   1688.18811
   2540,   2500.63037,   1795.18811
   2541,   2363.63037,   1690.18811
   2542,   2497.63037,   1795.18811
   2543,   2363.63037,   1692.18811
   2544,   2496.63037,   1795.18811
   2545,   2363.63037,   1693.18811
   2546,   2495.63037,   1795.18811
   2547,   2363.63037,   1694.18811
   2548,   2374.63037,   1775.18811
   2549,   2385.63037,   1775.18811
   2550,   2493.63037,   1793.18811
   2551,   2389.63037,   1775.18811
   2552,   2365.63037,   1695.68811
   2553,   2363.63037,   1697.18811
   2554,   2370.63037,   1775.18811
   2555,   2493.63037,   1792.18811
   2556,   2391.63037,   1775.18811
   2557,   2363.63037,   1698.18811
   2558,   2366.63037,   1775.18811
   2559,   2493.63037,   1788.18811
   2560,   2495.63037,   1790.18811
   2561,   2392.63037,   1775.18811
   2562,   2363.63037,   1743.18811
   2563,   2365.63037,   1700.14465
   2564,   2365.63037,    1702.1012
   2565,   2365.63037,   1704.05762
   2566,   2365.63037,   1706.01416
   2567,   2365.63037,    1707.9707
   2568,   2365.63037,   1709.92725
   2569,   2365.63037,   1711.88379
   2570,   2365.63037,   1713.84033
   2571,   2365.63037,   1715.79675
   2572,   2365.63037,    1717.7533
   2573,   2365.63037,   1719.70984
   2574,   2365.63037,   1721.66638
   2575,   2365.63037,   1723.62292
   2576,   2365.63037,   1725.57947
   2577,   2365.63037,   1727.53589
   2578,   2365.63037,   1729.49243
   2579,   2365.63037,   1731.44897
   2580,   2365.63037,   1733.40552
   2581,   2365.63037,   1735.36206
   2582,   2365.63037,   1737.31848
   2583,   2365.63037,   1739.27502
   2584,   2365.63037,   1741.23157
   2585,   2365.63037,   1775.18811
   2586,   2493.63037,   1740.18811
   2587,   2495.63037,   1742.18811
   2588,   2495.63037,   1744.18811
   2589,   2495.63037,   1746.18811
   2590,   2495.63037,   1748.18811
   2591,   2495.63037,   1750.18811
   2592,   2495.63037,   1752.18811
   2593,   2495.63037,   1754.18811
   2594,   2495.63037,   1756.18811
   2595,   2495.63037,   1758.18811
   2596,   2495.63037,   1760.18811
   2597,   2495.63037,   1762.18811
   2598,   2495.63037,   1764.18811
   2599,   2495.63037,   1766.18811
   2600,   2495.63037,   1768.18811
   2601,   2495.63037,   1770.18811
   2602,   2495.63037,   1772.18811
   2603,   2495.63037,   1774.18811
   2604,   2495.63037,   1776.18811
   2605,   2495.63037,   1778.18811
   2606,   2495.63037,   1780.18811
   2607,   2495.63037,   1782.18811
   2608,   2495.63037,   1784.18811
   2609,   2495.63037,   1786.18811
   2610,   2394.63037,   1775.18811
   2611,   2363.63037,   1747.18811
   2612,   2365.63037,   1745.18811
   2613,   2370.63037,   1770.18811
   2614,   2366.63037,   1770.18811
   2615,   2363.63037,   1773.18811
   2616,   2493.63037,   1730.18811
   2617,   2495.63037,   1732.18811
   2618,   2495.63037,   1734.18811
   2619,   2495.63037,   1736.18811
   2620,   2495.63037,   1738.18811
   2621,   2395.63037,   1775.18811
   2622,   2374.63037,   1770.18811
   2623,   2363.63037,   1748.18811
   2624,   2365.63037,   1770.18811
   2625,   2363.63037,   1772.18811
   2626,   2493.63037,   1698.18811
   2627,   2495.63037,   1700.18811
   2628,   2495.63037,   1702.18811
   2629,   2495.63037,   1704.18811
   2630,   2495.63037,   1706.18811
   2631,   2495.63037,   1708.18811
   2632,   2495.63037,   1710.18811
   2633,   2495.63037,   1712.18811
   2634,   2495.63037,   1714.18811
   2635,   2495.63037,   1716.18811
   2636,   2495.63037,   1718.18811
   2637,   2495.63037,   1720.18811
   2638,   2495.63037,   1722.18811
   2639,   2495.63037,   1724.18811
   2640,   2495.63037,   1726.18811
   2641,   2495.63037,   1728.18811
   2642,   2399.63037,   1775.18811
   2643,   2385.63037,   1770.18811
   2644,   2363.63037,   1752.18811
   2645,   2365.63037,   1750.18811
   2646,   2363.63037,   1768.18811
   2647,   2493.63037,   1697.18811
   2648,   2493.63037,   1693.18811
   2649,   2493.63037,   1694.18811
   2650,   2400.63037,   1775.18811
   2651,   2389.63037,   1770.18811
   2652,   2363.63037,   1753.18811
   2653,   2363.63037,   1767.18811
   2654,   2491.63037,   1695.68811
   2655,   2495.63037,   1695.68811
   2656,   2404.63037,   1775.18811
   2657,   2391.63037,   1770.18811
   2658,   2363.63037,   1757.18811
   2659,   2365.63037,   1755.18811
   2660,   2363.63037,   1763.18811
   2661,   2365.63037,   1765.18811
   2662,   2490.63037,   1695.68811
   2663,   2488.63037,   1694.18811
   2664,   2486.63037,   1694.18811
   2665,   2484.63037,   1694.18811
   2666,   2482.63037,   1694.18811
   2667,   2480.63037,   1694.18811
   2668,   2478.63037,   1694.18811
   2669,   2476.63037,   1694.18811
   2670,   2474.63037,   1694.18811
   2671,   2472.63037,   1694.18811
   2672,   2472.63037,   1693.18811
   2673,   2474.63037,   1693.18811
   2674,   2476.63037,   1693.18811
   2675,   2478.63037,   1693.18811
   2676,   2480.63037,   1693.18811
   2677,   2482.63037,   1693.18811
   2678,   2484.63037,   1693.18811
   2679,   2486.63037,   1693.18811
   2680,   2488.63037,   1693.18811
   2681,   2405.63037,   1775.18811
   2682,   2392.63037,   1770.18811
   2683,   2363.63037,   1758.18811
   2684,   2363.63037,   1762.18811
   2685,   2366.63037,   1765.18811
   2686,   2470.63037,   1695.68811
   2687,   2409.63037,   1775.18811
   2688,   2394.63037,   1770.18811
   2689,   2365.63037,   1760.18811
   2690,   2370.63037,   1765.18811
   2691,   2469.63037,   1695.68811
   2692,   2467.63037,   1694.18811
   2693,   2467.63037,   1693.18811
   2694,   2410.63037,   1775.18811
   2695,   2395.63037,   1770.18811
   2696,   2366.63037,   1760.18811
   2697,   2374.63037,   1765.18811
   2698,   2467.63037,   1697.18811
   2699,   2465.63037,   1695.68811
   2700,   2414.63037,   1775.18811
   2701,   2399.63037,   1770.18811
   2702,   2370.63037,   1760.18811
   2703,   2368.63037,   1758.18811
   2704,   2385.63037,   1765.18811
   2705,   2467.63037,   1698.18811
   2706,   2415.63037,   1775.18811
   2707,   2400.63037,   1770.18811
   2708,   2372.63037,   1758.18811
   2709,   2374.63037,   1760.18811
   2710,   2389.63037,   1765.18811
   2711,   2467.63037,   1738.18811
   2712,   2465.63037,   1736.18811
   2713,   2465.63037,   1734.18811
   2714,   2465.63037,   1732.18811
   2715,   2465.63037,   1730.18811
   2716,   2465.63037,   1728.18811
   2717,   2465.63037,   1726.18811
   2718,   2465.63037,   1724.18811
   2719,   2465.63037,   1722.18811
   2720,   2465.63037,   1720.18811
   2721,   2465.63037,   1718.18811
   2722,   2465.63037,   1716.18811
   2723,   2465.63037,   1714.18811
   2724,   2465.63037,   1712.18811
   2725,   2465.63037,   1710.18811
   2726,   2465.63037,   1708.18811
   2727,   2465.63037,   1706.18811
   2728,   2465.63037,   1704.18811
   2729,   2465.63037,   1702.18811
   2730,   2465.63037,   1700.18811
   2731,   2419.63037,   1775.18811
   2732,   2404.63037,   1770.18811
   2733,   2376.46362,   1758.18811
   2734,   2378.29712,   1758.18811
   2735,   2380.13037,   1758.18811
   2736,   2381.96362,   1758.18811
   2737,   2383.79712,   1758.18811
   2738,   2385.63037,   1760.18811
   2739,   2391.63037,   1765.18811
   2740,   2467.63037,   1742.18811
   2741,   2465.63037,   1740.18811
   2742,   2420.63037,   1775.18811
   2743,   2405.63037,   1770.18811
   2744,   2387.63037,   1758.18811
   2745,   2389.63037,   1760.18811
   2746,   2392.63037,   1765.18811
   2747,   2467.63037,   1743.18811
   2748,   2424.63037,   1775.18811
   2749,   2409.63037,   1770.18811
   2750,   2391.63037,   1760.18811
   2751,   2394.63037,   1765.18811
   2752,   2465.63037,   1745.18811
   2753,   2425.63037,   1775.18811
   2754,   2410.63037,   1770.18811
   2755,   2392.63037,   1760.18811
   2756,   2395.63037,   1765.18811
   2757,   2464.63037,   1745.18811
   2758,   2427.63037,   1773.18811
   2759,   2414.63037,   1770.18811
   2760,   2394.63037,   1760.18811
   2761,   2399.63037,   1765.18811
   2762,   2461.63037,   1745.18811
   2763,   2463.13037,   1743.18811
   2764,   2427.63037,   1772.18811
   2765,   2415.63037,   1770.18811
   2766,   2395.63037,   1760.18811
   2767,   2400.63037,   1765.18811
   2768,   2460.63037,   1745.18811
   2769,   2427.63037,   1768.18811
   2770,   2419.63037,   1770.18811
   2771,   2399.63037,   1760.18811
   2772,   2397.63037,   1758.18811
   2773,   2404.63037,   1765.18811
   2774,   2456.63037,   1745.18811
   2775,   2458.63037,   1743.18811
   2776,   2427.63037,   1767.18811
   2777,   2420.63037,   1770.18811
   2778,   2400.63037,   1760.18811
   2779,   2405.63037,   1765.18811
   2780,   2455.63037,   1745.18811
   2781,   2427.63037,   1763.18811
   2782,   2422.63037,   1768.18811
   2783,   2404.63037,   1760.18811
   2784,   2402.63037,   1758.18811
   2785,   2409.63037,   1765.18811
   2786,   2453.63037,   1743.18811
   2787,   2427.63037,   1762.18811
   2788,   2422.63037,   1767.18811
   2789,   2405.63037,   1760.18811
   2790,   2410.63037,   1765.18811
   2791,   2453.63037,   1742.18811
   2792,   2427.63037,   1758.18811
   2793,   2422.63037,   1763.18811
   2794,   2409.63037,   1760.18811
   2795,   2407.63037,   1758.18811
   2796,   2414.63037,   1765.18811
   2797,   2453.63037,   1738.18811
   2798,   2455.63037,   1740.18811
   2799,   2427.63037,   1757.18811
   2800,   2422.63037,   1762.18811
   2801,   2410.63037,   1760.18811
   2802,   2415.63037,   1765.18811
   2803,   2453.63037,   1698.18811
   2804,   2455.63037,   1700.18811
   2805,   2455.63037,   1702.18811
   2806,   2455.63037,   1704.18811
   2807,   2455.63037,   1706.18811
   2808,   2455.63037,   1708.18811
   2809,   2455.63037,   1710.18811
   2810,   2455.63037,   1712.18811
   2811,   2455.63037,   1714.18811
   2812,   2455.63037,   1716.18811
   2813,   2455.63037,   1718.18811
   2814,   2455.63037,   1720.18811
   2815,   2455.63037,   1722.18811
   2816,   2455.63037,   1724.18811
   2817,   2455.63037,   1726.18811
   2818,   2455.63037,   1728.18811
   2819,   2455.63037,   1730.18811
   2820,   2455.63037,   1732.18811
   2821,   2455.63037,   1734.18811
   2822,   2455.63037,   1736.18811
   2823,   2427.63037,   1753.18811
   2824,   2422.63037,   1758.18811
   2825,   2412.63037,   1758.18811
   2826,   2417.63037,   1763.18811
   2827,   2453.63037,   1697.18811
   2828,   2427.63037,   1752.18811
   2829,   2422.63037,   1757.18811
   2830,   2453.63037,   1694.18811
   2831,   2453.63037,   1693.18811
   2832,   2412.63037,   1757.18811
   2833,   2417.63037,   1762.18811
   2834,   2455.63037,   1695.68811
   2835,   2451.63037,   1695.68811
   2836,   2427.63037,   1748.18811
   2837,   2422.63037,   1753.18811
   2838,   2412.63037,   1753.18811
   2839,   2410.63037,   1755.18811
   2840,   2417.63037,   1758.18811
   2841,   2450.63037,   1695.68811
   2842,   2427.63037,   1747.18811
   2843,   2422.63037,   1752.18811
   2844,   2442.63037,   1693.18811
   2845,   2444.63037,   1693.18811
   2846,   2446.63037,   1693.18811
   2847,   2448.63037,   1693.18811
   2848,   2448.63037,   1694.18811
   2849,   2446.63037,   1694.18811
   2850,   2444.63037,   1694.18811
   2851,   2442.63037,   1694.18811
   2852,   2412.63037,   1752.18811
   2853,   2417.63037,   1757.18811
   2854,   2440.63037,   1695.68811
   2855,   2427.63037,   1743.18811
   2856,   2425.63037,   1745.18811
   2857,   2422.63037,   1748.18811
   2858,   2432.63037,   1693.18811
   2859,   2434.63037,   1693.18811
   2860,   2436.63037,   1693.18811
   2861,   2438.63037,   1693.18811
   2862,   2438.63037,   1694.18811
   2863,   2436.63037,   1694.18811
   2864,   2434.63037,   1694.18811
   2865,   2432.63037,   1694.18811
   2866,   2412.63037,   1748.18811
   2867,   2410.63037,   1750.18811
   2868,   2417.63037,   1753.18811
   2869,   2430.63037,   1695.68811
   2870,   2427.63037,   1698.18811
   2871,   2422.63037,   1747.18811
   2872,   2412.63037,   1747.18811
   2873,   2417.63037,   1752.18811
   2874,   2429.63037,   1695.68811
   2875,   2427.63037,   1697.18811
   2876,   2422.63037,   1743.18811
   2877,   2424.63037,   1745.18811
   2878,   2420.63037,   1745.18811
   2879,   2427.63037,   1693.18811
   2880,   2427.63037,   1694.18811
   2881,   2412.63037,   1743.18811
   2882,   2414.63037,   1745.18811
   2883,   2410.63037,   1745.18811
   2884,   2417.63037,   1748.18811
   2885,   2425.63037,   1695.68811
   2886,   2422.63037,   1698.18811
   2887,   2410.63037,   1741.23157
   2888,   2410.63037,   1739.27502
   2889,   2410.63037,   1737.31848
   2890,   2410.63037,   1735.36206
   2891,   2410.63037,   1733.40552
   2892,   2410.63037,   1731.44897
   2893,   2410.63037,   1729.49243
   2894,   2410.63037,   1727.53589
   2895,   2410.63037,   1725.57947
   2896,   2410.63037,   1723.62292
   2897,   2410.63037,   1721.66638
   2898,   2410.63037,   1719.70984
   2899,   2410.63037,    1717.7533
   2900,   2410.63037,   1715.79675
   2901,   2410.63037,   1713.84033
   2902,   2410.63037,   1711.88379
   2903,   2410.63037,   1709.92725
   2904,   2410.63037,    1707.9707
   2905,   2410.63037,   1706.01416
   2906,   2410.63037,   1704.05762
   2907,   2410.63037,    1702.1012
   2908,   2410.63037,   1700.14465
   2909,   2412.63037,   1698.18811
   2910,   2417.63037,   1747.18811
   2911,   2424.63037,   1695.68811
   2912,   2422.63037,   1697.18811
   2913,   2422.63037,   1693.18811
   2914,   2422.63037,   1694.18811
   2915,   2412.63037,   1694.18811
   2916,   2412.63037,   1693.18811
   2917,   2412.63037,   1697.18811
   2918,   2417.63037,   1743.18811
   2919,   2419.63037,   1745.18811
   2920,   2415.63037,   1745.18811
   2921,   2420.63037,   1695.68811
   2922,   2410.63037,   1695.68811
   2923,   2414.63037,   1695.68811
   2924,   2417.63037,   1698.18811
   2925,   2419.63037,   1695.68811
   2926,   2417.63037,   1693.18811
   2927,   2417.63037,   1694.18811
   2928,   2415.63037,   1695.68811
   2929,   2417.63037,   1697.18811
   2930,   2387.63037,   1690.18811
   2931,   2368.63037,   1684.18811
   2932,   2383.79712,   1690.18811
   2933,   2381.96362,   1690.18811
   2934,   2380.13037,   1690.18811
   2935,   2378.29712,   1690.18811
   2936,   2376.46362,   1690.18811
   2937,   2368.63037,   1687.18811
   2938,   2448.63037,   1684.18811
   2939,   2446.63037,   1684.18811
   2940,   2444.63037,   1684.18811
   2941,   2442.63037,   1684.18811
   2942,   2372.63037,   1690.18811
   2943,   2368.63037,   1688.18811
   2944,   2368.63037,   1690.18811
   2945,   2453.63037,   1684.18811
   2946,   2458.63037,   1684.18811
   2947,   2463.13037,   1684.18811
   2948,   2366.63037,   1695.68811
   2949,   2467.63037,   1684.18811
   2950,   2366.63037,   1700.14465
   2951,   2366.63037,    1702.1012
   2952,   2366.63037,   1704.05762
   2953,   2366.63037,   1706.01416
   2954,   2366.63037,    1707.9707
   2955,   2366.63037,   1709.92725
   2956,   2366.63037,   1711.88379
   2957,   2366.63037,   1713.84033
   2958,   2366.63037,   1715.79675
   2959,   2366.63037,    1717.7533
   2960,   2366.63037,   1719.70984
   2961,   2366.63037,   1721.66638
   2962,   2366.63037,   1723.62292
   2963,   2366.63037,   1725.57947
   2964,   2366.63037,   1727.53589
   2965,   2366.63037,   1729.49243
   2966,   2366.63037,   1731.44897
   2967,   2366.63037,   1733.40552
   2968,   2366.63037,   1735.36206
   2969,   2366.63037,   1737.31848
   2970,   2366.63037,   1739.27502
   2971,   2366.63037,   1741.23157
   2972,   2366.63037,   1745.18811
   2973,   2488.63037,   1684.18811
   2974,   2486.63037,   1684.18811
   2975,   2484.63037,   1684.18811
   2976,   2482.63037,   1684.18811
   2977,   2480.63037,   1684.18811
   2978,   2478.63037,   1684.18811
   2979,   2476.63037,   1684.18811
   2980,   2474.63037,   1684.18811
   2981,   2472.63037,   1684.18811
   2982,   2366.63037,   1750.18811
   2983,   2493.63037,   1684.18811
   2984,   2366.63037,   1755.18811
   2985,   2368.63037,   1757.18811
   2986,   2372.63037,   1757.18811
   2987,   2376.46362,   1757.18811
   2988,   2378.29712,   1757.18811
   2989,   2380.13037,   1757.18811
   2990,   2381.96362,   1757.18811
   2991,   2383.79712,   1757.18811
   2992,   2387.63037,   1757.18811
   2993,   2397.63037,   1757.18811
   2994,   2402.63037,   1757.18811
   2995,   2504.63037,   1695.68811
   2996,   2407.63037,   1757.18811
   2997,   2504.63037,   1728.18811
   2998,   2504.63037,   1726.18811
   2999,   2504.63037,   1724.18811
   3000,   2504.63037,   1722.18811
   3001,   2504.63037,   1720.18811
   3002,   2504.63037,   1718.18811
   3003,   2504.63037,   1716.18811
   3004,   2504.63037,   1714.18811
   3005,   2504.63037,   1712.18811
   3006,   2504.63037,   1710.18811
   3007,   2504.63037,   1708.18811
   3008,   2504.63037,   1706.18811
   3009,   2504.63037,   1704.18811
   3010,   2504.63037,   1702.18811
   3011,   2504.63037,   1700.18811
   3012,   2504.63037,   1738.18811
   3013,   2504.63037,   1736.18811
   3014,   2504.63037,   1734.18811
   3015,   2504.63037,   1732.18811
   3016,   2409.63037,   1755.18811
   3017,   2504.63037,   1786.18811
   3018,   2504.63037,   1784.18811
   3019,   2504.63037,   1782.18811
   3020,   2504.63037,   1780.18811
   3021,   2504.63037,   1778.18811
   3022,   2504.63037,   1776.18811
   3023,   2504.63037,   1774.18811
   3024,   2504.63037,   1772.18811
   3025,   2504.63037,   1770.18811
   3026,   2504.63037,   1768.18811
   3027,   2504.63037,   1766.18811
   3028,   2504.63037,   1764.18811
   3029,   2504.63037,   1762.18811
   3030,   2504.63037,   1760.18811
   3031,   2504.63037,   1758.18811
   3032,   2504.63037,   1756.18811
   3033,   2504.63037,   1754.18811
   3034,   2504.63037,   1752.18811
   3035,   2504.63037,   1750.18811
   3036,   2504.63037,   1748.18811
   3037,   2504.63037,   1746.18811
   3038,   2504.63037,   1744.18811
   3039,   2504.63037,   1742.18811
   3040,   2504.63037,   1790.18811
   3041,   2409.63037,   1750.18811
   3042,   2409.63037,   1745.18811
   3043,   2409.63037,   1741.23157
   3044,   2409.63037,   1739.27502
   3045,   2409.63037,   1737.31848
   3046,   2409.63037,   1735.36206
   3047,   2409.63037,   1733.40552
   3048,   2409.63037,   1731.44897
   3049,   2409.63037,   1729.49243
   3050,   2409.63037,   1727.53589
   3051,   2409.63037,   1725.57947
   3052,   2409.63037,   1723.62292
   3053,   2409.63037,   1721.66638
   3054,   2409.63037,   1719.70984
   3055,   2409.63037,    1717.7533
   3056,   2409.63037,   1715.79675
   3057,   2409.63037,   1713.84033
   3058,   2409.63037,   1711.88379
   3059,   2409.63037,   1709.92725
   3060,   2409.63037,    1707.9707
   3061,   2409.63037,   1706.01416
   3062,   2409.63037,   1704.05762
   3063,   2409.63037,    1702.1012
   3064,   2409.63037,   1700.14465
   3065,   2409.63037,   1695.68811
   3066,   2496.63037,   1790.18811
   3067,   2412.63037,   1692.18811
   3068,   2496.63037,   1742.18811
   3069,   2496.63037,   1744.18811
   3070,   2496.63037,   1746.18811
   3071,   2496.63037,   1748.18811
   3072,   2496.63037,   1750.18811
   3073,   2496.63037,   1752.18811
   3074,   2496.63037,   1754.18811
   3075,   2496.63037,   1756.18811
   3076,   2496.63037,   1758.18811
   3077,   2496.63037,   1760.18811
   3078,   2496.63037,   1762.18811
   3079,   2496.63037,   1764.18811
   3080,   2496.63037,   1766.18811
   3081,   2496.63037,   1768.18811
   3082,   2496.63037,   1770.18811
   3083,   2496.63037,   1772.18811
   3084,   2496.63037,   1774.18811
   3085,   2496.63037,   1776.18811
   3086,   2496.63037,   1778.18811
   3087,   2496.63037,   1780.18811
   3088,   2496.63037,   1782.18811
   3089,   2496.63037,   1784.18811
   3090,   2496.63037,   1786.18811
   3091,   2496.63037,   1732.18811
   3092,   2496.63037,   1734.18811
   3093,   2496.63037,   1736.18811
   3094,   2496.63037,   1738.18811
   3095,   2417.63037,   1692.18811
   3096,   2496.63037,   1700.18811
   3097,   2496.63037,   1702.18811
   3098,   2496.63037,   1704.18811
   3099,   2496.63037,   1706.18811
   3100,   2496.63037,   1708.18811
   3101,   2496.63037,   1710.18811
   3102,   2496.63037,   1712.18811
   3103,   2496.63037,   1714.18811
   3104,   2496.63037,   1716.18811
   3105,   2496.63037,   1718.18811
   3106,   2496.63037,   1720.18811
   3107,   2496.63037,   1722.18811
   3108,   2496.63037,   1724.18811
   3109,   2496.63037,   1726.18811
   3110,   2496.63037,   1728.18811
   3111,   2422.63037,   1692.18811
   3112,   2496.63037,   1695.68811
   3113,   2427.63037,   1692.18811
   3114,   2493.63037,   1692.18811
   3115,   2432.63037,   1692.18811
   3116,   2434.63037,   1692.18811
   3117,   2436.63037,   1692.18811
   3118,   2438.63037,   1692.18811
   3119,   2442.63037,   1692.18811
   3120,   2444.63037,   1692.18811
   3121,   2446.63037,   1692.18811
   3122,   2448.63037,   1692.18811
   3123,   2472.63037,   1692.18811
   3124,   2474.63037,   1692.18811
   3125,   2476.63037,   1692.18811
   3126,   2478.63037,   1692.18811
   3127,   2480.63037,   1692.18811
   3128,   2482.63037,   1692.18811
   3129,   2484.63037,   1692.18811
   3130,   2486.63037,   1692.18811
   3131,   2488.63037,   1692.18811
   3132,   2453.63037,   1692.18811
   3133,   2467.63037,   1692.18811
   3134,   2456.63037,   1695.68811
   3135,   2464.63037,   1695.68811
   3136,   2456.63037,   1700.18811
   3137,   2456.63037,   1702.18811
   3138,   2456.63037,   1704.18811
   3139,   2456.63037,   1706.18811
   3140,   2456.63037,   1708.18811
   3141,   2456.63037,   1710.18811
   3142,   2456.63037,   1712.18811
   3143,   2456.63037,   1714.18811
   3144,   2456.63037,   1716.18811
   3145,   2456.63037,   1718.18811
   3146,   2456.63037,   1720.18811
   3147,   2456.63037,   1722.18811
   3148,   2456.63037,   1724.18811
   3149,   2456.63037,   1726.18811
   3150,   2456.63037,   1728.18811
   3151,   2456.63037,   1730.18811
   3152,   2456.63037,   1732.18811
   3153,   2456.63037,   1734.18811
   3154,   2456.63037,   1736.18811
   3155,   2464.63037,   1736.18811
   3156,   2464.63037,   1734.18811
   3157,   2464.63037,   1732.18811
   3158,   2464.63037,   1730.18811
   3159,   2464.63037,   1728.18811
   3160,   2464.63037,   1726.18811
   3161,   2464.63037,   1724.18811
   3162,   2464.63037,   1722.18811
   3163,   2464.63037,   1720.18811
   3164,   2464.63037,   1718.18811
   3165,   2464.63037,   1716.18811
   3166,   2464.63037,   1714.18811
   3167,   2464.63037,   1712.18811
   3168,   2464.63037,   1710.18811
   3169,   2464.63037,   1708.18811
   3170,   2464.63037,   1706.18811
   3171,   2464.63037,   1704.18811
   3172,   2464.63037,   1702.18811
   3173,   2464.63037,   1700.18811
   3174,   2456.63037,   1740.18811
   3175,   2464.63037,   1740.18811
   3176,   2458.63037,   1742.18811
   3177,   2463.13037,   1742.18811
   3178,   2502.63037,   1695.68811
   3179,   2502.63037,   1700.18811
   3180,   2502.63037,   1702.18811
   3181,   2502.63037,   1704.18811
   3182,   2502.63037,   1706.18811
   3183,   2502.63037,   1708.18811
   3184,   2502.63037,   1710.18811
   3185,   2502.63037,   1712.18811
   3186,   2502.63037,   1714.18811
   3187,   2502.63037,   1716.18811
   3188,   2502.63037,   1718.18811
   3189,   2502.63037,   1720.18811
   3190,   2502.63037,   1722.18811
   3191,   2502.63037,   1724.18811
   3192,   2502.63037,   1726.18811
   3193,   2502.63037,   1728.18811
   3194,   2502.63037,   1738.18811
   3195,   2502.63037,   1736.18811
   3196,   2502.63037,   1734.18811
   3197,   2502.63037,   1732.18811
   3198,   2502.63037,   1786.18811
   3199,   2502.63037,   1784.18811
   3200,   2502.63037,   1782.18811
   3201,   2502.63037,   1780.18811
   3202,   2502.63037,   1778.18811
   3203,   2502.63037,   1776.18811
   3204,   2502.63037,   1774.18811
   3205,   2502.63037,   1772.18811
   3206,   2502.63037,   1770.18811
   3207,   2502.63037,   1768.18811
   3208,   2502.63037,   1766.18811
   3209,   2502.63037,   1764.18811
   3210,   2502.63037,   1762.18811
   3211,   2502.63037,   1760.18811
   3212,   2502.63037,   1758.18811
   3213,   2502.63037,   1756.18811
   3214,   2502.63037,   1754.18811
   3215,   2502.63037,   1752.18811
   3216,   2502.63037,   1750.18811
   3217,   2502.63037,   1748.18811
   3218,   2502.63037,   1746.18811
   3219,   2502.63037,   1744.18811
   3220,   2502.63037,   1742.18811
   3221,   2501.63037,   1786.18811
   3222,   2501.63037,   1784.18811
   3223,   2501.63037,   1782.18811
   3224,   2501.63037,   1780.18811
   3225,   2501.63037,   1778.18811
   3226,   2501.63037,   1776.18811
   3227,   2501.63037,   1774.18811
   3228,   2501.63037,   1772.18811
   3229,   2501.63037,   1770.18811
   3230,   2501.63037,   1768.18811
   3231,   2501.63037,   1766.18811
   3232,   2501.63037,   1764.18811
   3233,   2501.63037,   1762.18811
   3234,   2501.63037,   1760.18811
   3235,   2501.63037,   1758.18811
   3236,   2501.63037,   1756.18811
   3237,   2501.63037,   1754.18811
   3238,   2501.63037,   1752.18811
   3239,   2501.63037,   1750.18811
   3240,   2501.63037,   1748.18811
   3241,   2501.63037,   1746.18811
   3242,   2501.63037,   1744.18811
   3243,   2501.63037,   1742.18811
   3244,   2502.63037,   1790.18811
   3245,   2501.63037,   1790.18811
   3246,   2500.63037,   1790.18811
   3247,   2497.63037,   1790.18811
   3248,   2497.63037,   1786.18811
   3249,   2497.63037,   1784.18811
   3250,   2497.63037,   1782.18811
   3251,   2497.63037,   1780.18811
   3252,   2497.63037,   1778.18811
   3253,   2497.63037,   1776.18811
   3254,   2497.63037,   1774.18811
   3255,   2497.63037,   1772.18811
   3256,   2497.63037,   1770.18811
   3257,   2497.63037,   1768.18811
   3258,   2497.63037,   1766.18811
   3259,   2497.63037,   1764.18811
   3260,   2497.63037,   1762.18811
   3261,   2497.63037,   1760.18811
   3262,   2497.63037,   1758.18811
   3263,   2497.63037,   1756.18811
   3264,   2497.63037,   1754.18811
   3265,   2497.63037,   1752.18811
   3266,   2497.63037,   1750.18811
   3267,   2497.63037,   1748.18811
   3268,   2497.63037,   1746.18811
   3269,   2497.63037,   1744.18811
   3270,   2497.63037,   1742.18811
   3271,   2500.63037,   1742.18811
   3272,   2500.63037,   1744.18811
   3273,   2500.63037,   1746.18811
   3274,   2500.63037,   1748.18811
   3275,   2500.63037,   1750.18811
   3276,   2500.63037,   1752.18811
   3277,   2500.63037,   1754.18811
   3278,   2500.63037,   1756.18811
   3279,   2500.63037,   1758.18811
   3280,   2500.63037,   1760.18811
   3281,   2500.63037,   1762.18811
   3282,   2500.63037,   1764.18811
   3283,   2500.63037,   1766.18811
   3284,   2500.63037,   1768.18811
   3285,   2500.63037,   1770.18811
   3286,   2500.63037,   1772.18811
   3287,   2500.63037,   1774.18811
   3288,   2500.63037,   1776.18811
   3289,   2500.63037,   1778.18811
   3290,   2500.63037,   1780.18811
   3291,   2500.63037,   1782.18811
   3292,   2500.63037,   1784.18811
   3293,   2500.63037,   1786.18811
   3294,   2497.63037,   1732.18811
   3295,   2497.63037,   1734.18811
   3296,   2497.63037,   1736.18811
   3297,   2497.63037,   1738.18811
   3298,   2497.63037,   1728.18811
   3299,   2497.63037,   1726.18811
   3300,   2497.63037,   1724.18811
   3301,   2497.63037,   1722.18811
   3302,   2497.63037,   1720.18811
   3303,   2497.63037,   1718.18811
   3304,   2497.63037,   1716.18811
   3305,   2497.63037,   1714.18811
   3306,   2497.63037,   1712.18811
   3307,   2497.63037,   1710.18811
   3308,   2497.63037,   1708.18811
   3309,   2497.63037,   1706.18811
   3310,   2497.63037,   1704.18811
   3311,   2497.63037,   1702.18811
   3312,   2497.63037,   1700.18811
   3313,   2497.63037,   1695.68811
   3314,   2493.63037,   1690.18811
   3315,   2488.63037,   1690.18811
   3316,   2486.63037,   1690.18811
   3317,   2484.63037,   1690.18811
   3318,   2482.63037,   1690.18811
   3319,   2480.63037,   1690.18811
   3320,   2478.63037,   1690.18811
   3321,   2476.63037,   1690.18811
   3322,   2474.63037,   1690.18811
   3323,   2472.63037,   1690.18811
   3324,   2467.63037,   1690.18811
   3325,   2463.13037,   1690.18811
   3326,   2463.13037,   1692.18811
   3327,   2463.13037,   1693.18811
   3328,   2463.13037,   1694.18811
   3329,   2463.13037,   1697.18811
   3330,   2463.13037,   1698.18811
   3331,   2463.13037,   1738.18811
   3332,   2461.63037,   1740.18811
   3333,   2460.63037,   1740.18811
   3334,   2458.63037,   1738.18811
   3335,   2458.63037,   1698.18811
   3336,   2458.63037,   1697.18811
   3337,   2458.63037,   1694.18811
   3338,   2458.63037,   1693.18811
   3339,   2458.63037,   1692.18811
   3340,   2458.63037,   1690.18811
   3341,   2453.63037,   1690.18811
   3342,   2448.63037,   1690.18811
   3343,   2446.63037,   1690.18811
   3344,   2444.63037,   1690.18811
   3345,   2442.63037,   1690.18811
   3346,   2438.63037,   1690.18811
   3347,   2436.63037,   1690.18811
   3348,   2434.63037,   1690.18811
   3349,   2432.63037,   1690.18811
   3350,   2427.63037,   1690.18811
   3351,   2422.63037,   1690.18811
   3352,   2417.63037,   1690.18811
   3353,   2407.63037,   1698.18811
   3354,   2407.63037,   1697.18811
   3355,   2407.63037,   1694.18811
   3356,   2412.63037,   1690.18811
   3357,   2407.63037,   1743.18811
   3358,   2407.63037,   1693.18811
   3359,   2407.63037,   1747.18811
   3360,   2405.63037,   1745.18811
   3361,   2407.63037,   1692.18811
   3362,   2407.63037,   1690.18811
   3363,   2407.63037,   1748.18811
   3364,   2402.63037,   1693.18811
   3365,   2402.63037,   1694.18811
   3366,   2407.63037,   1752.18811
   3367,   2402.63037,   1692.18811
   3368,   2402.63037,   1690.18811
   3369,   2402.63037,   1697.18811
   3370,   2407.63037,   1753.18811
   3371,   2402.63037,   1698.18811
   3372,   2405.63037,   1755.18811
   3373,   2397.63037,   1690.18811
   3374,   2402.63037,   1743.18811
   3375,   2404.63037,   1755.18811
   3376,   2397.63037,   1692.18811
   3377,   2404.63037,   1745.18811
   3378,   2402.63037,   1747.18811
   3379,   2400.63037,   1745.18811
   3380,   2400.63037,   1755.18811
   3381,   2397.63037,   1693.18811
   3382,   2402.63037,   1748.18811
   3383,   2399.63037,   1755.18811
   3384,   2397.63037,   1694.18811
   3385,   2400.63037,   1750.18811
   3386,   2395.63037,   1755.18811
   3387,   2397.63037,   1697.18811
   3388,   2399.63037,   1750.18811
   3389,   2394.63037,   1755.18811
   3390,   2397.63037,   1698.18811
   3391,   2395.63037,   1750.18811
   3392,   2392.63037,   1755.18811
   3393,   2397.63037,   1743.18811
   3394,   2394.63037,   1750.18811
   3395,   2391.63037,   1755.18811
   3396,   2399.63037,   1745.18811
   3397,   2395.63037,   1745.18811
   3398,   2392.63037,   1750.18811
   3399,   2389.63037,   1755.18811
   3400,   2394.63037,   1745.18811
   3401,   2391.63037,   1750.18811
   3402,   2385.63037,   1755.18811
   3403,   2392.63037,   1745.18811
   3404,   2389.63037,   1750.18811
   3405,   2374.63037,   1755.18811
   3406,   2391.63037,   1745.18811
   3407,   2385.63037,   1750.18811
   3408,   2370.63037,   1755.18811
   3409,   2389.63037,   1745.18811
   3410,   2374.63037,   1750.18811
   3411,   2368.63037,   1753.18811
   3412,   2385.63037,   1745.18811
   3413,   2370.63037,   1750.18811
   3414,   2368.63037,   1752.18811
   3415,   2374.63037,   1745.18811
   3416,   2368.63037,   1748.18811
   3417,   2370.63037,   1745.18811
   3418,   2368.63037,   1747.18811
   3419,   2368.63037,   1743.18811
   3420,   2368.63037,   1698.18811
   3421,   2368.63037,   1697.18811
   3422,   2368.63037,   1694.18811
   3423,   2383.79712,   1692.18811
   3424,   2381.96362,   1692.18811
   3425,   2380.13037,   1692.18811
   3426,   2378.29712,   1692.18811
   3427,   2376.46362,   1692.18811
   3428,   2368.63037,   1692.18811
   3429,   2376.46362,   1693.18811
   3430,   2378.29712,   1693.18811
   3431,   2380.13037,   1693.18811
   3432,   2381.96362,   1693.18811
   3433,   2383.79712,   1693.18811
   3434,   2368.63037,   1693.18811
   3435,   2372.63037,   1692.18811
   3436,   2372.63037,   1693.18811
   3437,   2501.63037,   1738.18811
   3438,   2501.63037,   1736.18811
   3439,   2501.63037,   1734.18811
   3440,   2501.63037,   1732.18811
   3441,   2500.63037,   1738.18811
   3442,   2500.63037,   1736.18811
   3443,   2500.63037,   1734.18811
   3444,   2500.63037,   1732.18811
   3445,   2372.63037,   1695.68811
   3446,   2372.63037,   1700.14465
   3447,   2372.63037,    1702.1012
   3448,   2372.63037,   1704.05762
   3449,   2372.63037,   1706.01416
   3450,   2372.63037,    1707.9707
   3451,   2372.63037,   1709.92725
   3452,   2372.63037,   1711.88379
   3453,   2372.63037,   1713.84033
   3454,   2372.63037,   1715.79675
   3455,   2372.63037,    1717.7533
   3456,   2372.63037,   1719.70984
   3457,   2372.63037,   1721.66638
   3458,   2372.63037,   1723.62292
   3459,   2372.63037,   1725.57947
   3460,   2372.63037,   1727.53589
   3461,   2372.63037,   1729.49243
   3462,   2372.63037,   1731.44897
   3463,   2372.63037,   1733.40552
   3464,   2372.63037,   1735.36206
   3465,   2372.63037,   1737.31848
   3466,   2372.63037,   1739.27502
   3467,   2372.63037,   1741.23157
   3468,   2376.46362,   1695.68811
   3469,   2378.29712,   1695.68811
   3470,   2380.13037,   1695.68811
   3471,   2381.96362,   1695.68811
   3472,   2383.79712,   1695.68811
   3473,   2376.46362,   1741.23157
   3474,   2376.46362,   1739.27502
   3475,   2376.46362,   1737.31848
   3476,   2376.46362,   1735.36206
   3477,   2376.46362,   1733.40552
   3478,   2376.46362,   1731.44897
   3479,   2376.46362,   1729.49243
   3480,   2376.46362,   1727.53589
   3481,   2376.46362,   1725.57947
   3482,   2376.46362,   1723.62292
   3483,   2376.46362,   1721.66638
   3484,   2376.46362,   1719.70984
   3485,   2376.46362,    1717.7533
   3486,   2376.46362,   1715.79675
   3487,   2376.46362,   1713.84033
   3488,   2376.46362,   1711.88379
   3489,   2376.46362,   1709.92725
   3490,   2376.46362,    1707.9707
   3491,   2376.46362,   1706.01416
   3492,   2376.46362,   1704.05762
   3493,   2376.46362,    1702.1012
   3494,   2376.46362,   1700.14465
   3495,   2378.29712,   1741.23157
   3496,   2378.29712,   1739.27502
   3497,   2378.29712,   1737.31848
   3498,   2378.29712,   1735.36206
   3499,   2378.29712,   1733.40552
   3500,   2378.29712,   1731.44897
   3501,   2378.29712,   1729.49243
   3502,   2378.29712,   1727.53589
   3503,   2378.29712,   1725.57947
   3504,   2378.29712,   1723.62292
   3505,   2378.29712,   1721.66638
   3506,   2378.29712,   1719.70984
   3507,   2378.29712,    1717.7533
   3508,   2378.29712,   1715.79675
   3509,   2378.29712,   1713.84033
   3510,   2378.29712,   1711.88379
   3511,   2378.29712,   1709.92725
   3512,   2378.29712,    1707.9707
   3513,   2378.29712,   1706.01416
   3514,   2378.29712,   1704.05762
   3515,   2378.29712,    1702.1012
   3516,   2378.29712,   1700.14465
   3517,   2380.13037,   1741.23157
   3518,   2380.13037,   1739.27502
   3519,   2380.13037,   1737.31848
   3520,   2380.13037,   1735.36206
   3521,   2380.13037,   1733.40552
   3522,   2380.13037,   1731.44897
   3523,   2380.13037,   1729.49243
   3524,   2380.13037,   1727.53589
   3525,   2380.13037,   1725.57947
   3526,   2380.13037,   1723.62292
   3527,   2380.13037,   1721.66638
   3528,   2380.13037,   1719.70984
   3529,   2380.13037,    1717.7533
   3530,   2380.13037,   1715.79675
   3531,   2380.13037,   1713.84033
   3532,   2380.13037,   1711.88379
   3533,   2380.13037,   1709.92725
   3534,   2380.13037,    1707.9707
   3535,   2380.13037,   1706.01416
   3536,   2380.13037,   1704.05762
   3537,   2380.13037,    1702.1012
   3538,   2380.13037,   1700.14465
   3539,   2381.96362,   1741.23157
   3540,   2381.96362,   1739.27502
   3541,   2381.96362,   1737.31848
   3542,   2381.96362,   1735.36206
   3543,   2381.96362,   1733.40552
   3544,   2381.96362,   1731.44897
   3545,   2381.96362,   1729.49243
   3546,   2381.96362,   1727.53589
   3547,   2381.96362,   1725.57947
   3548,   2381.96362,   1723.62292
   3549,   2381.96362,   1721.66638
   3550,   2381.96362,   1719.70984
   3551,   2381.96362,    1717.7533
   3552,   2381.96362,   1715.79675
   3553,   2381.96362,   1713.84033
   3554,   2381.96362,   1711.88379
   3555,   2381.96362,   1709.92725
   3556,   2381.96362,    1707.9707
   3557,   2381.96362,   1706.01416
   3558,   2381.96362,   1704.05762
   3559,   2381.96362,    1702.1012
   3560,   2381.96362,   1700.14465
   3561,   2383.79712,   1741.23157
   3562,   2383.79712,   1739.27502
   3563,   2383.79712,   1737.31848
   3564,   2383.79712,   1735.36206
   3565,   2383.79712,   1733.40552
   3566,   2383.79712,   1731.44897
   3567,   2383.79712,   1729.49243
   3568,   2383.79712,   1727.53589
   3569,   2383.79712,   1725.57947
   3570,   2383.79712,   1723.62292
   3571,   2383.79712,   1721.66638
   3572,   2383.79712,   1719.70984
   3573,   2383.79712,    1717.7533
   3574,   2383.79712,   1715.79675
   3575,   2383.79712,   1713.84033
   3576,   2383.79712,   1711.88379
   3577,   2383.79712,   1709.92725
   3578,   2383.79712,    1707.9707
   3579,   2383.79712,   1706.01416
   3580,   2383.79712,   1704.05762
   3581,   2383.79712,    1702.1012
   3582,   2383.79712,   1700.14465
   3583,   2387.63037,   1695.68811
   3584,   2387.63037,   1741.23157
   3585,   2387.63037,   1739.27502
   3586,   2387.63037,   1737.31848
   3587,   2387.63037,   1735.36206
   3588,   2387.63037,   1733.40552
   3589,   2387.63037,   1731.44897
   3590,   2387.63037,   1729.49243
   3591,   2387.63037,   1727.53589
   3592,   2387.63037,   1725.57947
   3593,   2387.63037,   1723.62292
   3594,   2387.63037,   1721.66638
   3595,   2387.63037,   1719.70984
   3596,   2387.63037,    1717.7533
   3597,   2387.63037,   1715.79675
   3598,   2387.63037,   1713.84033
   3599,   2387.63037,   1711.88379
   3600,   2387.63037,   1709.92725
   3601,   2387.63037,    1707.9707
   3602,   2387.63037,   1706.01416
   3603,   2387.63037,   1704.05762
   3604,   2387.63037,    1702.1012
   3605,   2387.63037,   1700.14465
   3606,   2387.63037,   1681.18811
   3607,   2376.46362,   1681.18811
   3608,   2378.29712,   1681.18811
   3609,   2380.13037,   1681.18811
   3610,   2381.96362,   1681.18811
   3611,   2383.79712,   1681.18811
   3612,   2397.63037,   1681.18811
   3613,   2402.63037,   1681.18811
   3614,   2407.63037,   1681.18811
   3615,   2412.63037,   1681.18811
   3616,   2417.63037,   1681.18811
   3617,   2422.63037,   1681.18811
   3618,   2427.63037,   1681.18811
   3619,   2432.63037,   1681.18811
   3620,   2434.63037,   1681.18811
   3621,   2436.63037,   1681.18811
   3622,   2438.63037,   1681.18811
   3623,   2448.63037,   1681.18811
   3624,   2446.63037,   1681.18811
   3625,   2444.63037,   1681.18811
   3626,   2442.63037,   1681.18811
   3627,   2453.63037,   1681.18811
   3628,   2458.63037,   1681.18811
   3629,   2463.13037,   1681.18811
   3630,   2467.63037,   1681.18811
   3631,   2488.63037,   1681.18811
   3632,   2486.63037,   1681.18811
   3633,   2484.63037,   1681.18811
   3634,   2482.63037,   1681.18811
   3635,   2480.63037,   1681.18811
   3636,   2478.63037,   1681.18811
   3637,   2476.63037,   1681.18811
   3638,   2474.63037,   1681.18811
   3639,   2472.63037,   1681.18811
   3640,   2493.63037,   1681.18811
   3641,   2507.63037,   1681.18811
   3642,   2507.63037,   1695.68811
   3643,   2507.63037,   1728.18811
   3644,   2507.63037,   1726.18811
   3645,   2507.63037,   1724.18811
   3646,   2507.63037,   1722.18811
   3647,   2507.63037,   1720.18811
   3648,   2507.63037,   1718.18811
   3649,   2507.63037,   1716.18811
   3650,   2507.63037,   1714.18811
   3651,   2507.63037,   1712.18811
   3652,   2507.63037,   1710.18811
   3653,   2507.63037,   1708.18811
   3654,   2507.63037,   1706.18811
   3655,   2507.63037,   1704.18811
   3656,   2507.63037,   1702.18811
   3657,   2507.63037,   1700.18811
   3658,   2507.63037,   1732.18811
   3659,   2507.63037,   1734.18811
   3660,   2507.63037,   1736.18811
   3661,   2507.63037,   1738.18811
   3662,   2507.63037,   1742.18811
   3663,   2507.63037,   1744.18811
   3664,   2507.63037,   1746.18811
   3665,   2507.63037,   1748.18811
   3666,   2507.63037,   1750.18811
   3667,   2507.63037,   1752.18811
   3668,   2507.63037,   1754.18811
   3669,   2507.63037,   1756.18811
   3670,   2507.63037,   1758.18811
   3671,   2507.63037,   1760.18811
   3672,   2507.63037,   1762.18811
   3673,   2507.63037,   1764.18811
   3674,   2507.63037,   1766.18811
   3675,   2507.63037,   1768.18811
   3676,   2507.63037,   1770.18811
   3677,   2507.63037,   1772.18811
   3678,   2507.63037,   1774.18811
   3679,   2507.63037,   1776.18811
   3680,   2507.63037,   1778.18811
   3681,   2507.63037,   1780.18811
   3682,   2507.63037,   1782.18811
   3683,   2507.63037,   1784.18811
   3684,   2507.63037,   1786.18811
   3685,   2372.63037,   1681.18811
   3686,   2507.63037,   1790.18811
   3687,   2368.63037,   1681.18811
   3688,   2507.63037,   1795.18811
   3689,   2363.63037,   1681.18811
   3690,   2376.46362,   1775.18811
   3691,   2378.29712,   1775.18811
   3692,   2380.13037,   1775.18811
   3693,   2381.96362,   1775.18811
   3694,   2383.79712,   1775.18811
   3695,   2493.63037,   1795.18811
   3696,   2387.63037,   1775.18811
   3697,   2363.63037,   1695.68811
   3698,   2372.63037,   1775.18811
   3699,   2368.63037,   1775.18811
   3700,   2493.63037,   1790.18811
   3701,   2363.63037,   1741.23157
   3702,   2363.63037,   1739.27502
   3703,   2363.63037,   1737.31848
   3704,   2363.63037,   1735.36206
   3705,   2363.63037,   1733.40552
   3706,   2363.63037,   1731.44897
   3707,   2363.63037,   1729.49243
   3708,   2363.63037,   1727.53589
   3709,   2363.63037,   1725.57947
   3710,   2363.63037,   1723.62292
   3711,   2363.63037,   1721.66638
   3712,   2363.63037,   1719.70984
   3713,   2363.63037,    1717.7533
   3714,   2363.63037,   1715.79675
   3715,   2363.63037,   1713.84033
   3716,   2363.63037,   1711.88379
   3717,   2363.63037,   1709.92725
   3718,   2363.63037,    1707.9707
   3719,   2363.63037,   1706.01416
   3720,   2363.63037,   1704.05762
   3721,   2363.63037,    1702.1012
   3722,   2363.63037,   1700.14465
   3723,   2493.63037,   1786.18811
   3724,   2493.63037,   1784.18811
   3725,   2493.63037,   1782.18811
   3726,   2493.63037,   1780.18811
   3727,   2493.63037,   1778.18811
   3728,   2493.63037,   1776.18811
   3729,   2493.63037,   1774.18811
   3730,   2493.63037,   1772.18811
   3731,   2493.63037,   1770.18811
   3732,   2493.63037,   1768.18811
   3733,   2493.63037,   1766.18811
   3734,   2493.63037,   1764.18811
   3735,   2493.63037,   1762.18811
   3736,   2493.63037,   1760.18811
   3737,   2493.63037,   1758.18811
   3738,   2493.63037,   1756.18811
   3739,   2493.63037,   1754.18811
   3740,   2493.63037,   1752.18811
   3741,   2493.63037,   1750.18811
   3742,   2493.63037,   1748.18811
   3743,   2493.63037,   1746.18811
   3744,   2493.63037,   1744.18811
   3745,   2493.63037,   1742.18811
   3746,   2363.63037,   1745.18811
   3747,   2368.63037,   1770.18811
   3748,   2363.63037,   1775.18811
   3749,   2493.63037,   1738.18811
   3750,   2493.63037,   1736.18811
   3751,   2493.63037,   1734.18811
   3752,   2493.63037,   1732.18811
   3753,   2372.63037,   1770.18811
   3754,   2493.63037,   1728.18811
   3755,   2493.63037,   1726.18811
   3756,   2493.63037,   1724.18811
   3757,   2493.63037,   1722.18811
   3758,   2493.63037,   1720.18811
   3759,   2493.63037,   1718.18811
   3760,   2493.63037,   1716.18811
   3761,   2493.63037,   1714.18811
   3762,   2493.63037,   1712.18811
   3763,   2493.63037,   1710.18811
   3764,   2493.63037,   1708.18811
   3765,   2493.63037,   1706.18811
   3766,   2493.63037,   1704.18811
   3767,   2493.63037,   1702.18811
   3768,   2493.63037,   1700.18811
   3769,   2397.63037,   1775.18811
   3770,   2376.46362,   1770.18811
   3771,   2378.29712,   1770.18811
   3772,   2380.13037,   1770.18811
   3773,   2381.96362,   1770.18811
   3774,   2383.79712,   1770.18811
   3775,   2363.63037,   1750.18811
   3776,   2363.63037,   1770.18811
   3777,   2387.63037,   1770.18811
   3778,   2493.63037,   1695.68811
   3779,   2402.63037,   1775.18811
   3780,   2363.63037,   1755.18811
   3781,   2363.63037,   1765.18811
   3782,   2488.63037,   1695.68811
   3783,   2486.63037,   1695.68811
   3784,   2484.63037,   1695.68811
   3785,   2482.63037,   1695.68811
   3786,   2480.63037,   1695.68811
   3787,   2478.63037,   1695.68811
   3788,   2476.63037,   1695.68811
   3789,   2474.63037,   1695.68811
   3790,   2472.63037,   1695.68811
   3791,   2407.63037,   1775.18811
   3792,   2363.63037,   1760.18811
   3793,   2368.63037,   1765.18811
   3794,   2372.63037,   1765.18811
   3795,   2467.63037,   1695.68811
   3796,   2412.63037,   1775.18811
   3797,   2397.63037,   1770.18811
   3798,   2368.63037,   1760.18811
   3799,   2376.46362,   1765.18811
   3800,   2378.29712,   1765.18811
   3801,   2380.13037,   1765.18811
   3802,   2381.96362,   1765.18811
   3803,   2383.79712,   1765.18811
   3804,   2372.63037,   1760.18811
   3805,   2387.63037,   1765.18811
   3806,   2467.63037,   1736.18811
   3807,   2467.63037,   1734.18811
   3808,   2467.63037,   1732.18811
   3809,   2467.63037,   1730.18811
   3810,   2467.63037,   1728.18811
   3811,   2467.63037,   1726.18811
   3812,   2467.63037,   1724.18811
   3813,   2467.63037,   1722.18811
   3814,   2467.63037,   1720.18811
   3815,   2467.63037,   1718.18811
   3816,   2467.63037,   1716.18811
   3817,   2467.63037,   1714.18811
   3818,   2467.63037,   1712.18811
   3819,   2467.63037,   1710.18811
   3820,   2467.63037,   1708.18811
   3821,   2467.63037,   1706.18811
   3822,   2467.63037,   1704.18811
   3823,   2467.63037,   1702.18811
   3824,   2467.63037,   1700.18811
   3825,   2417.63037,   1775.18811
   3826,   2402.63037,   1770.18811
   3827,   2376.46362,   1760.18811
   3828,   2378.29712,   1760.18811
   3829,   2380.13037,   1760.18811
   3830,   2381.96362,   1760.18811
   3831,   2383.79712,   1760.18811
   3832,   2467.63037,   1740.18811
   3833,   2387.63037,   1760.18811
   3834,   2422.63037,   1775.18811
   3835,   2407.63037,   1770.18811
   3836,   2467.63037,   1745.18811
   3837,   2427.63037,   1775.18811
   3838,   2412.63037,   1770.18811
   3839,   2397.63037,   1765.18811
   3840,   2463.13037,   1745.18811
   3841,   2427.63037,   1770.18811
   3842,   2417.63037,   1770.18811
   3843,   2397.63037,   1760.18811
   3844,   2402.63037,   1765.18811
   3845,   2458.63037,   1745.18811
   3846,   2427.63037,   1765.18811
   3847,   2422.63037,   1770.18811
   3848,   2402.63037,   1760.18811
   3849,   2407.63037,   1765.18811
   3850,   2453.63037,   1745.18811
   3851,   2427.63037,   1760.18811
   3852,   2422.63037,   1765.18811
   3853,   2407.63037,   1760.18811
   3854,   2412.63037,   1765.18811
   3855,   2453.63037,   1740.18811
   3856,   2453.63037,   1700.18811
   3857,   2453.63037,   1702.18811
   3858,   2453.63037,   1704.18811
   3859,   2453.63037,   1706.18811
   3860,   2453.63037,   1708.18811
   3861,   2453.63037,   1710.18811
   3862,   2453.63037,   1712.18811
   3863,   2453.63037,   1714.18811
   3864,   2453.63037,   1716.18811
   3865,   2453.63037,   1718.18811
   3866,   2453.63037,   1720.18811
   3867,   2453.63037,   1722.18811
   3868,   2453.63037,   1724.18811
   3869,   2453.63037,   1726.18811
   3870,   2453.63037,   1728.18811
   3871,   2453.63037,   1730.18811
   3872,   2453.63037,   1732.18811
   3873,   2453.63037,   1734.18811
   3874,   2453.63037,   1736.18811
   3875,   2427.63037,   1755.18811
   3876,   2422.63037,   1760.18811
   3877,   2412.63037,   1760.18811
   3878,   2417.63037,   1765.18811
   3879,   2453.63037,   1695.68811
   3880,   2427.63037,   1750.18811
   3881,   2422.63037,   1755.18811
   3882,   2412.63037,   1755.18811
   3883,   2417.63037,   1760.18811
   3884,   2442.63037,   1695.68811
   3885,   2444.63037,   1695.68811
   3886,   2446.63037,   1695.68811
   3887,   2448.63037,   1695.68811
   3888,   2427.63037,   1745.18811
   3889,   2422.63037,   1750.18811
   3890,   2412.63037,   1750.18811
   3891,   2417.63037,   1755.18811
   3892,   2432.63037,   1695.68811
   3893,   2434.63037,   1695.68811
   3894,   2436.63037,   1695.68811
   3895,   2438.63037,   1695.68811
   3896,   2427.63037,   1741.23157
   3897,   2427.63037,   1739.27502
   3898,   2427.63037,   1737.31848
   3899,   2427.63037,   1735.36206
   3900,   2427.63037,   1733.40552
   3901,   2427.63037,   1731.44897
   3902,   2427.63037,   1729.49243
   3903,   2427.63037,   1727.53589
   3904,   2427.63037,   1725.57947
   3905,   2427.63037,   1723.62292
   3906,   2427.63037,   1721.66638
   3907,   2427.63037,   1719.70984
   3908,   2427.63037,    1717.7533
   3909,   2427.63037,   1715.79675
   3910,   2427.63037,   1713.84033
   3911,   2427.63037,   1711.88379
   3912,   2427.63037,   1709.92725
   3913,   2427.63037,    1707.9707
   3914,   2427.63037,   1706.01416
   3915,   2427.63037,   1704.05762
   3916,   2427.63037,    1702.1012
   3917,   2427.63037,   1700.14465
   3918,   2422.63037,   1745.18811
   3919,   2412.63037,   1745.18811
   3920,   2417.63037,   1750.18811
   3921,   2427.63037,   1695.68811
   3922,   2422.63037,   1741.23157
   3923,   2422.63037,   1739.27502
   3924,   2422.63037,   1737.31848
   3925,   2422.63037,   1735.36206
   3926,   2422.63037,   1733.40552
   3927,   2422.63037,   1731.44897
   3928,   2422.63037,   1729.49243
   3929,   2422.63037,   1727.53589
   3930,   2422.63037,   1725.57947
   3931,   2422.63037,   1723.62292
   3932,   2422.63037,   1721.66638
   3933,   2422.63037,   1719.70984
   3934,   2422.63037,    1717.7533
   3935,   2422.63037,   1715.79675
   3936,   2422.63037,   1713.84033
   3937,   2422.63037,   1711.88379
   3938,   2422.63037,   1709.92725
   3939,   2422.63037,    1707.9707
   3940,   2422.63037,   1706.01416
   3941,   2422.63037,   1704.05762
   3942,   2422.63037,    1702.1012
   3943,   2422.63037,   1700.14465
   3944,   2412.63037,   1741.23157
   3945,   2412.63037,   1739.27502
   3946,   2412.63037,   1737.31848
   3947,   2412.63037,   1735.36206
   3948,   2412.63037,   1733.40552
   3949,   2412.63037,   1731.44897
   3950,   2412.63037,   1729.49243
   3951,   2412.63037,   1727.53589
   3952,   2412.63037,   1725.57947
   3953,   2412.63037,   1723.62292
   3954,   2412.63037,   1721.66638
   3955,   2412.63037,   1719.70984
   3956,   2412.63037,    1717.7533
   3957,   2412.63037,   1715.79675
   3958,   2412.63037,   1713.84033
   3959,   2412.63037,   1711.88379
   3960,   2412.63037,   1709.92725
   3961,   2412.63037,    1707.9707
   3962,   2412.63037,   1706.01416
   3963,   2412.63037,   1704.05762
   3964,   2412.63037,    1702.1012
   3965,   2412.63037,   1700.14465
   3966,   2417.63037,   1745.18811
   3967,   2422.63037,   1695.68811
   3968,   2412.63037,   1695.68811
   3969,   2417.63037,   1741.23157
   3970,   2417.63037,   1739.27502
   3971,   2417.63037,   1737.31848
   3972,   2417.63037,   1735.36206
   3973,   2417.63037,   1733.40552
   3974,   2417.63037,   1731.44897
   3975,   2417.63037,   1729.49243
   3976,   2417.63037,   1727.53589
   3977,   2417.63037,   1725.57947
   3978,   2417.63037,   1723.62292
   3979,   2417.63037,   1721.66638
   3980,   2417.63037,   1719.70984
   3981,   2417.63037,    1717.7533
   3982,   2417.63037,   1715.79675
   3983,   2417.63037,   1713.84033
   3984,   2417.63037,   1711.88379
   3985,   2417.63037,   1709.92725
   3986,   2417.63037,    1707.9707
   3987,   2417.63037,   1706.01416
   3988,   2417.63037,   1704.05762
   3989,   2417.63037,    1702.1012
   3990,   2417.63037,   1700.14465
   3991,   2463.13037,   1695.68811
   3992,   2463.13037,   1736.18811
   3993,   2463.13037,   1734.18811
   3994,   2463.13037,   1732.18811
   3995,   2463.13037,   1730.18811
   3996,   2463.13037,   1728.18811
   3997,   2463.13037,   1726.18811
   3998,   2463.13037,   1724.18811
   3999,   2463.13037,   1722.18811
   4000,   2463.13037,   1720.18811
   4001,   2463.13037,   1718.18811
   4002,   2463.13037,   1716.18811
   4003,   2463.13037,   1714.18811
   4004,   2463.13037,   1712.18811
   4005,   2463.13037,   1710.18811
   4006,   2463.13037,   1708.18811
   4007,   2463.13037,   1706.18811
   4008,   2463.13037,   1704.18811
   4009,   2463.13037,   1702.18811
   4010,   2463.13037,   1700.18811
   4011,   2463.13037,   1740.18811
   4012,   2458.63037,   1740.18811
   4013,   2458.63037,   1700.18811
   4014,   2458.63037,   1702.18811
   4015,   2458.63037,   1704.18811
   4016,   2458.63037,   1706.18811
   4017,   2458.63037,   1708.18811
   4018,   2458.63037,   1710.18811
   4019,   2458.63037,   1712.18811
   4020,   2458.63037,   1714.18811
   4021,   2458.63037,   1716.18811
   4022,   2458.63037,   1718.18811
   4023,   2458.63037,   1720.18811
   4024,   2458.63037,   1722.18811
   4025,   2458.63037,   1724.18811
   4026,   2458.63037,   1726.18811
   4027,   2458.63037,   1728.18811
   4028,   2458.63037,   1730.18811
   4029,   2458.63037,   1732.18811
   4030,   2458.63037,   1734.18811
   4031,   2458.63037,   1736.18811
   4032,   2458.63037,   1695.68811
   4033,   2407.63037,   1695.68811
   4034,   2407.63037,   1741.23157
   4035,   2407.63037,   1739.27502
   4036,   2407.63037,   1737.31848
   4037,   2407.63037,   1735.36206
   4038,   2407.63037,   1733.40552
   4039,   2407.63037,   1731.44897
   4040,   2407.63037,   1729.49243
   4041,   2407.63037,   1727.53589
   4042,   2407.63037,   1725.57947
   4043,   2407.63037,   1723.62292
   4044,   2407.63037,   1721.66638
   4045,   2407.63037,   1719.70984
   4046,   2407.63037,    1717.7533
   4047,   2407.63037,   1715.79675
   4048,   2407.63037,   1713.84033
   4049,   2407.63037,   1711.88379
   4050,   2407.63037,   1709.92725
   4051,   2407.63037,    1707.9707
   4052,   2407.63037,   1706.01416
   4053,   2407.63037,   1704.05762
   4054,   2407.63037,    1702.1012
   4055,   2407.63037,   1700.14465
   4056,   2407.63037,   1745.18811
   4057,   2407.63037,   1750.18811
   4058,   2402.63037,   1695.68811
   4059,   2407.63037,   1755.18811
   4060,   2402.63037,   1741.23157
   4061,   2402.63037,   1739.27502
   4062,   2402.63037,   1737.31848
   4063,   2402.63037,   1735.36206
   4064,   2402.63037,   1733.40552
   4065,   2402.63037,   1731.44897
   4066,   2402.63037,   1729.49243
   4067,   2402.63037,   1727.53589
   4068,   2402.63037,   1725.57947
   4069,   2402.63037,   1723.62292
   4070,   2402.63037,   1721.66638
   4071,   2402.63037,   1719.70984
   4072,   2402.63037,    1717.7533
   4073,   2402.63037,   1715.79675
   4074,   2402.63037,   1713.84033
   4075,   2402.63037,   1711.88379
   4076,   2402.63037,   1709.92725
   4077,   2402.63037,    1707.9707
   4078,   2402.63037,   1706.01416
   4079,   2402.63037,   1704.05762
   4080,   2402.63037,    1702.1012
   4081,   2402.63037,   1700.14465
   4082,   2402.63037,   1745.18811
   4083,   2402.63037,   1755.18811
   4084,   2402.63037,   1750.18811
   4085,   2397.63037,   1755.18811
   4086,   2397.63037,   1695.68811
   4087,   2397.63037,   1750.18811
   4088,   2397.63037,   1741.23157
   4089,   2397.63037,   1739.27502
   4090,   2397.63037,   1737.31848
   4091,   2397.63037,   1735.36206
   4092,   2397.63037,   1733.40552
   4093,   2397.63037,   1731.44897
   4094,   2397.63037,   1729.49243
   4095,   2397.63037,   1727.53589
   4096,   2397.63037,   1725.57947
   4097,   2397.63037,   1723.62292
   4098,   2397.63037,   1721.66638
   4099,   2397.63037,   1719.70984
   4100,   2397.63037,    1717.7533
   4101,   2397.63037,   1715.79675
   4102,   2397.63037,   1713.84033
   4103,   2397.63037,   1711.88379
   4104,   2397.63037,   1709.92725
   4105,   2397.63037,    1707.9707
   4106,   2397.63037,   1706.01416
   4107,   2397.63037,   1704.05762
   4108,   2397.63037,    1702.1012
   4109,   2397.63037,   1700.14465
   4110,   2397.63037,   1745.18811
   4111,   2387.63037,   1755.18811
   4112,   2376.46362,   1755.18811
   4113,   2378.29712,   1755.18811
   4114,   2380.13037,   1755.18811
   4115,   2381.96362,   1755.18811
   4116,   2383.79712,   1755.18811
   4117,   2387.63037,   1750.18811
   4118,   2372.63037,   1755.18811
   4119,   2376.46362,   1750.18811
   4120,   2378.29712,   1750.18811
   4121,   2380.13037,   1750.18811
   4122,   2381.96362,   1750.18811
   4123,   2383.79712,   1750.18811
   4124,   2368.63037,   1755.18811
   4125,   2387.63037,   1745.18811
   4126,   2372.63037,   1750.18811
   4127,   2376.46362,   1745.18811
   4128,   2378.29712,   1745.18811
   4129,   2380.13037,   1745.18811
   4130,   2381.96362,   1745.18811
   4131,   2383.79712,   1745.18811
   4132,   2368.63037,   1750.18811
   4133,   2372.63037,   1745.18811
   4134,   2368.63037,   1745.18811
   4135,   2368.63037,   1741.23157
   4136,   2368.63037,   1739.27502
   4137,   2368.63037,   1737.31848
   4138,   2368.63037,   1735.36206
   4139,   2368.63037,   1733.40552
   4140,   2368.63037,   1731.44897
   4141,   2368.63037,   1729.49243
   4142,   2368.63037,   1727.53589
   4143,   2368.63037,   1725.57947
   4144,   2368.63037,   1723.62292
   4145,   2368.63037,   1721.66638
   4146,   2368.63037,   1719.70984
   4147,   2368.63037,    1717.7533
   4148,   2368.63037,   1715.79675
   4149,   2368.63037,   1713.84033
   4150,   2368.63037,   1711.88379
   4151,   2368.63037,   1709.92725
   4152,   2368.63037,    1707.9707
   4153,   2368.63037,   1706.01416
   4154,   2368.63037,   1704.05762
   4155,   2368.63037,    1702.1012
   4156,   2368.63037,   1700.14465
   4157,   2368.63037,   1695.68811
   4158,   2417.63037,   1695.68811
   4159,   2386.63037,   1687.18811
   4160,   2387.63037,   1687.68811
   4161,   2386.63037,   1688.18811
   4162,   2385.63037,   1687.68811
   4163,   2388.63037,   1687.18811
   4164,   2389.63037,   1687.68811
   4165,   2388.63037,   1688.18811
   4166,   2386.63037,   1693.18811
   4167,   2387.63037,   1693.68811
   4168,   2386.63037,   1694.18811
   4169,   2385.63037,   1693.68811
   4170,   2388.63037,   1693.18811
   4171,   2389.63037,   1693.68811
   4172,   2388.63037,   1694.18811
   4173,   2386.63037,   1692.18811
   4174,   2387.63037,   1692.68811
   4175,   2385.63037,   1692.68811
   4176,   2388.63037,   1692.18811
   4177,   2389.63037,   1692.68811
   4178,   2374.63037,   1747.68811
   4179,   2373.63037,   1748.18811
   4180,   2372.63037,   1747.68811
   4181,   2373.63037,   1747.18811
   4182,   2371.63037,   1748.18811
   4183,   2370.63037,   1747.68811
   4184,   2371.63037,   1747.18811
   4185,   2375.54712,   1747.18811
   4186,   2376.46362,   1747.68811
   4187,   2375.54712,   1748.18811
   4188,   2377.38037,   1747.18811
   4189,   2378.29712,   1747.68811
   4190,   2377.38037,   1748.18811
   4191,   2379.21387,   1747.18811
   4192,   2380.13037,   1747.68811
   4193,   2379.21387,   1748.18811
   4194,   2381.04688,   1747.18811
   4195,   2381.96362,   1747.68811
   4196,   2381.04688,   1748.18811
   4197,   2382.88037,   1747.18811
   4198,   2383.79712,   1747.68811
   4199,   2382.88037,   1748.18811
   4200,   2384.71387,   1747.18811
   4201,   2385.63037,   1747.68811
   4202,   2384.71387,   1748.18811
   4203,   2386.63037,   1747.18811
   4204,   2387.63037,   1747.68811
   4205,   2386.63037,   1748.18811
   4206,   2388.63037,   1747.18811
   4207,   2389.63037,   1747.68811
   4208,   2388.63037,   1748.18811
   4209,   2390.63037,   1747.18811
   4210,   2391.63037,   1747.68811
   4211,   2390.63037,   1748.18811
   4212,   2392.13037,   1747.18811
   4213,   2392.63037,   1747.68811
   4214,   2392.13037,   1748.18811
   4215,   2400.13037,   1693.18811
   4216,   2399.63037,   1692.68811
   4217,   2400.13037,   1692.18811
   4218,   2400.63037,   1692.68811
   4219,   2393.63037,   1747.18811
   4220,   2394.63037,   1747.68811
   4221,   2393.63037,   1748.18811
   4222,   2400.63037,   1693.68811
   4223,   2400.13037,   1694.18811
   4224,   2399.63037,   1693.68811
   4225,   2395.63037,   1747.68811
   4226,   2395.13037,   1748.18811
   4227,   2395.13037,   1747.18811
   4228,   2400.13037,   1697.18811
   4229,   2399.63037,   1696.43811
   4230,   2400.13037,   1695.68811
   4231,   2400.63037,   1696.43811
   4232,   2399.63037,   1694.93811
   4233,   2400.63037,   1694.93811
   4234,   2399.63037,   1747.68811
   4235,   2398.63037,   1748.18811
   4236,   2397.63037,   1747.68811
   4237,   2398.63037,   1747.18811
   4238,   2396.63037,   1748.18811
   4239,   2396.63037,   1747.18811
   4240,   2400.13037,   1698.18811
   4241,   2399.63037,   1697.68811
   4242,   2400.63037,   1697.68811
   4243,   2400.13037,   1747.18811
   4244,   2400.63037,   1747.68811
   4245,   2400.13037,   1748.18811
   4246,   2400.13037,   1743.18811
   4247,   2399.63037,   1742.20984
   4248,   2400.13037,   1741.23157
   4249,   2400.63037,   1742.20984
   4250,   2399.63037,    1740.2533
   4251,   2400.13037,   1739.27502
   4252,   2400.63037,    1740.2533
   4253,   2399.63037,   1738.29675
   4254,   2400.13037,   1737.31848
   4255,   2400.63037,   1738.29675
   4256,   2399.63037,   1736.34033
   4257,   2400.13037,   1735.36206
   4258,   2400.63037,   1736.34033
   4259,   2399.63037,   1734.38379
   4260,   2400.13037,   1733.40552
   4261,   2400.63037,   1734.38379
   4262,   2399.63037,   1732.42725
   4263,   2400.13037,   1731.44897
   4264,   2400.63037,   1732.42725
   4265,   2399.63037,    1730.4707
   4266,   2400.13037,   1729.49243
   4267,   2400.63037,    1730.4707
   4268,   2399.63037,   1728.51416
   4269,   2400.13037,   1727.53589
   4270,   2400.63037,   1728.51416
   4271,   2399.63037,   1726.55762
   4272,   2400.13037,   1725.57947
   4273,   2400.63037,   1726.55762
   4274,   2399.63037,    1724.6012
   4275,   2400.13037,   1723.62292
   4276,   2400.63037,    1724.6012
   4277,   2399.63037,   1722.64465
   4278,   2400.13037,   1721.66638
   4279,   2400.63037,   1722.64465
   4280,   2399.63037,   1720.68811
   4281,   2400.13037,   1719.70984
   4282,   2400.63037,   1720.68811
   4283,   2399.63037,   1718.73157
   4284,   2400.13037,    1717.7533
   4285,   2400.63037,   1718.73157
   4286,   2399.63037,   1716.77502
   4287,   2400.13037,   1715.79675
   4288,   2400.63037,   1716.77502
   4289,   2399.63037,    1714.8186
   4290,   2400.13037,   1713.84033
   4291,   2400.63037,    1714.8186
   4292,   2399.63037,   1712.86206
   4293,   2400.13037,   1711.88379
   4294,   2400.63037,   1712.86206
   4295,   2399.63037,   1710.90552
   4296,   2400.13037,   1709.92725
   4297,   2400.63037,   1710.90552
   4298,   2399.63037,   1708.94897
   4299,   2400.13037,    1707.9707
   4300,   2400.63037,   1708.94897
   4301,   2399.63037,   1706.99243
   4302,   2400.13037,   1706.01416
   4303,   2400.63037,   1706.99243
   4304,   2399.63037,   1705.03589
   4305,   2400.13037,   1704.05762
   4306,   2400.63037,   1705.03589
   4307,   2399.63037,   1703.07935
   4308,   2400.13037,    1702.1012
   4309,   2400.63037,   1703.07935
   4310,   2399.63037,   1701.12292
   4311,   2400.13037,   1700.14465
   4312,   2400.63037,   1701.12292
   4313,   2399.63037,   1699.16638
   4314,   2400.63037,   1699.16638
   4315,   2374.63037,   1752.68811
   4316,   2373.63037,   1753.18811
   4317,   2372.63037,   1752.68811
   4318,   2373.63037,   1752.18811
   4319,   2371.63037,   1753.18811
   4320,   2370.63037,   1752.68811
   4321,   2371.63037,   1752.18811
   4322,   2375.54712,   1752.18811
   4323,   2376.46362,   1752.68811
   4324,   2375.54712,   1753.18811
   4325,   2377.38037,   1752.18811
   4326,   2378.29712,   1752.68811
   4327,   2377.38037,   1753.18811
   4328,   2379.21387,   1752.18811
   4329,   2380.13037,   1752.68811
   4330,   2379.21387,   1753.18811
   4331,   2381.04688,   1752.18811
   4332,   2381.96362,   1752.68811
   4333,   2381.04688,   1753.18811
   4334,   2382.88037,   1752.18811
   4335,   2383.79712,   1752.68811
   4336,   2382.88037,   1753.18811
   4337,   2384.71387,   1752.18811
   4338,   2385.63037,   1752.68811
   4339,   2384.71387,   1753.18811
   4340,   2386.63037,   1752.18811
   4341,   2387.63037,   1752.68811
   4342,   2386.63037,   1753.18811
   4343,   2388.63037,   1752.18811
   4344,   2389.63037,   1752.68811
   4345,   2388.63037,   1753.18811
   4346,   2390.63037,   1752.18811
   4347,   2391.63037,   1752.68811
   4348,   2390.63037,   1753.18811
   4349,   2392.13037,   1752.18811
   4350,   2392.63037,   1752.68811
   4351,   2392.13037,   1753.18811
   4352,   2393.63037,   1752.18811
   4353,   2394.63037,   1752.68811
   4354,   2393.63037,   1753.18811
   4355,   2395.63037,   1752.68811
   4356,   2395.13037,   1753.18811
   4357,   2395.13037,   1752.18811
   4358,   2399.63037,   1752.68811
   4359,   2398.63037,   1753.18811
   4360,   2397.63037,   1752.68811
   4361,   2398.63037,   1752.18811
   4362,   2396.63037,   1753.18811
   4363,   2396.63037,   1752.18811
   4364,   2400.63037,   1752.68811
   4365,   2400.13037,   1753.18811
   4366,   2400.13037,   1752.18811
   4367,   2405.13037,   1693.18811
   4368,   2404.63037,   1692.68811
   4369,   2405.13037,   1692.18811
   4370,   2405.63037,   1692.68811
   4371,   2404.63037,   1752.68811
   4372,   2403.63037,   1753.18811
   4373,   2402.63037,   1752.68811
   4374,   2403.63037,   1752.18811
   4375,   2401.63037,   1753.18811
   4376,   2401.63037,   1752.18811
   4377,   2405.63037,   1693.68811
   4378,   2405.13037,   1694.18811
   4379,   2404.63037,   1693.68811
   4380,   2405.13037,   1752.18811
   4381,   2405.63037,   1752.68811
   4382,   2405.13037,   1753.18811
   4383,   2405.13037,   1697.18811
   4384,   2404.63037,   1696.43811
   4385,   2405.13037,   1695.68811
   4386,   2405.63037,   1696.43811
   4387,   2404.63037,   1694.93811
   4388,   2405.63037,   1694.93811
   4389,   2405.13037,   1748.18811
   4390,   2405.63037,   1749.18811
   4391,   2405.13037,   1750.18811
   4392,   2404.63037,   1749.18811
   4393,   2405.63037,   1751.18811
   4394,   2404.63037,   1751.18811
   4395,   2405.13037,   1698.18811
   4396,   2404.63037,   1697.68811
   4397,   2405.63037,   1697.68811
   4398,   2405.13037,   1747.18811
   4399,   2405.63037,   1747.68811
   4400,   2404.63037,   1747.68811
   4401,   2405.13037,   1743.18811
   4402,   2404.63037,   1742.20984
   4403,   2405.13037,   1741.23157
   4404,   2405.63037,   1742.20984
   4405,   2404.63037,    1740.2533
   4406,   2405.13037,   1739.27502
   4407,   2405.63037,    1740.2533
   4408,   2404.63037,   1738.29675
   4409,   2405.13037,   1737.31848
   4410,   2405.63037,   1738.29675
   4411,   2404.63037,   1736.34033
   4412,   2405.13037,   1735.36206
   4413,   2405.63037,   1736.34033
   4414,   2404.63037,   1734.38379
   4415,   2405.13037,   1733.40552
   4416,   2405.63037,   1734.38379
   4417,   2404.63037,   1732.42725
   4418,   2405.13037,   1731.44897
   4419,   2405.63037,   1732.42725
   4420,   2404.63037,    1730.4707
   4421,   2405.13037,   1729.49243
   4422,   2405.63037,    1730.4707
   4423,   2404.63037,   1728.51416
   4424,   2405.13037,   1727.53589
   4425,   2405.63037,   1728.51416
   4426,   2404.63037,   1726.55762
   4427,   2405.13037,   1725.57947
   4428,   2405.63037,   1726.55762
   4429,   2404.63037,    1724.6012
   4430,   2405.13037,   1723.62292
   4431,   2405.63037,    1724.6012
   4432,   2404.63037,   1722.64465
   4433,   2405.13037,   1721.66638
   4434,   2405.63037,   1722.64465
   4435,   2404.63037,   1720.68811
   4436,   2405.13037,   1719.70984
   4437,   2405.63037,   1720.68811
   4438,   2404.63037,   1718.73157
   4439,   2405.13037,    1717.7533
   4440,   2405.63037,   1718.73157
   4441,   2404.63037,   1716.77502
   4442,   2405.13037,   1715.79675
   4443,   2405.63037,   1716.77502
   4444,   2404.63037,    1714.8186
   4445,   2405.13037,   1713.84033
   4446,   2405.63037,    1714.8186
   4447,   2404.63037,   1712.86206
   4448,   2405.13037,   1711.88379
   4449,   2405.63037,   1712.86206
   4450,   2404.63037,   1710.90552
   4451,   2405.13037,   1709.92725
   4452,   2405.63037,   1710.90552
   4453,   2404.63037,   1708.94897
   4454,   2405.13037,    1707.9707
   4455,   2405.63037,   1708.94897
   4456,   2404.63037,   1706.99243
   4457,   2405.13037,   1706.01416
   4458,   2405.63037,   1706.99243
   4459,   2404.63037,   1705.03589
   4460,   2405.13037,   1704.05762
   4461,   2405.63037,   1705.03589
   4462,   2404.63037,   1703.07935
   4463,   2405.13037,    1702.1012
   4464,   2405.63037,   1703.07935
   4465,   2404.63037,   1701.12292
   4466,   2405.13037,   1700.14465
   4467,   2405.63037,   1701.12292
   4468,   2404.63037,   1699.16638
   4469,   2405.63037,   1699.16638
   4470,   2419.63037,   1685.68811
   4471,   2420.13037,   1684.18811
   4472,   2420.63037,   1685.68811
   4473,   2420.13037,   1687.18811
   4474,   2415.63037,   1685.68811
   4475,   2416.63037,   1684.18811
   4476,   2417.63037,   1685.68811
   4477,   2416.63037,   1687.18811
   4478,   2418.63037,   1684.18811
   4479,   2418.63037,   1687.18811
   4480,   2414.63037,   1685.68811
   4481,   2415.13037,   1684.18811
   4482,   2415.13037,   1687.18811
   4483,   2410.63037,   1685.68811
   4484,   2411.63037,   1684.18811
   4485,   2412.63037,   1685.68811
   4486,   2411.63037,   1687.18811
   4487,   2413.63037,   1684.18811
   4488,   2413.63037,   1687.18811
   4489,   2409.63037,   1685.68811
   4490,   2410.13037,   1684.18811
   4491,   2410.13037,   1687.18811
   4492,   2405.63037,   1685.68811
   4493,   2406.63037,   1684.18811
   4494,   2407.63037,   1685.68811
   4495,   2406.63037,   1687.18811
   4496,   2408.63037,   1684.18811
   4497,   2408.63037,   1687.18811
   4498,   2404.63037,   1685.68811
   4499,   2405.13037,   1684.18811
   4500,   2405.13037,   1687.18811
   4501,   2400.63037,   1685.68811
   4502,   2401.63037,   1684.18811
   4503,   2402.63037,   1685.68811
   4504,   2401.63037,   1687.18811
   4505,   2403.63037,   1684.18811
   4506,   2403.63037,   1687.18811
   4507,   2400.13037,   1687.18811
   4508,   2399.63037,   1685.68811
   4509,   2400.13037,   1684.18811
   4510,   2395.63037,   1685.68811
   4511,   2396.63037,   1684.18811
   4512,   2397.63037,   1685.68811
   4513,   2396.63037,   1687.18811
   4514,   2398.63037,   1684.18811
   4515,   2398.63037,   1687.18811
   4516,   2395.13037,   1687.18811
   4517,   2394.63037,   1685.68811
   4518,   2395.13037,   1684.18811
   4519,   2393.63037,   1687.18811
   4520,   2392.63037,   1685.68811
   4521,   2393.63037,   1684.18811
   4522,   2394.63037,   1687.68811
   4523,   2393.63037,   1688.18811
   4524,   2392.63037,   1687.68811
   4525,   2394.63037,   1689.18811
   4526,   2393.63037,   1690.18811
   4527,   2392.63037,   1689.18811
   4528,   2394.63037,   1691.18811
   4529,   2393.63037,   1692.18811
   4530,   2392.63037,   1691.18811
   4531,   2391.63037,   1691.18811
   4532,   2390.63037,   1692.18811
   4533,   2389.63037,   1691.18811
   4534,   2390.63037,   1690.18811
   4535,   2392.63037,   1693.68811
   4536,   2393.63037,   1693.18811
   4537,   2394.63037,   1693.68811
   4538,   2393.63037,   1694.18811
   4539,   2391.63037,   1693.68811
   4540,   2390.63037,   1694.18811
   4541,   2390.63037,   1693.18811
   4542,   2394.63037,   1692.68811
   4543,   2392.63037,   1692.68811
   4544,   2392.13037,   1690.18811
   4545,   2392.13037,   1692.18811
   4546,   2391.63037,   1692.68811
   4547,   2392.13037,   1693.18811
   4548,   2392.13037,   1694.18811
   4549,   2366.63037,   1762.68811
   4550,   2366.13037,   1763.18811
   4551,   2365.63037,   1762.68811
   4552,   2366.13037,   1762.18811
   4553,   2370.63037,   1762.68811
   4554,   2369.63037,   1763.18811
   4555,   2368.63037,   1762.68811
   4556,   2369.63037,   1762.18811
   4557,   2367.63037,   1763.18811
   4558,   2367.63037,   1762.18811
   4559,   2371.63037,   1762.18811
   4560,   2372.63037,   1762.68811
   4561,   2371.63037,   1763.18811
   4562,   2373.63037,   1762.18811
   4563,   2374.63037,   1762.68811
   4564,   2373.63037,   1763.18811
   4565,   2375.54712,   1762.18811
   4566,   2376.46362,   1762.68811
   4567,   2375.54712,   1763.18811
   4568,   2377.38037,   1762.18811
   4569,   2378.29712,   1762.68811
   4570,   2377.38037,   1763.18811
   4571,   2379.21387,   1762.18811
   4572,   2380.13037,   1762.68811
   4573,   2379.21387,   1763.18811
   4574,   2381.04688,   1762.18811
   4575,   2381.96362,   1762.68811
   4576,   2381.04688,   1763.18811
   4577,   2382.88037,   1762.18811
   4578,   2383.79712,   1762.68811
   4579,   2382.88037,   1763.18811
   4580,   2384.71387,   1762.18811
   4581,   2385.63037,   1762.68811
   4582,   2384.71387,   1763.18811
   4583,   2386.63037,   1762.18811
   4584,   2387.63037,   1762.68811
   4585,   2386.63037,   1763.18811
   4586,   2388.63037,   1762.18811
   4587,   2389.63037,   1762.68811
   4588,   2388.63037,   1763.18811
   4589,   2390.63037,   1762.18811
   4590,   2391.63037,   1762.68811
   4591,   2390.63037,   1763.18811
   4592,   2392.13037,   1762.18811
   4593,   2392.63037,   1762.68811
   4594,   2392.13037,   1763.18811
   4595,   2393.63037,   1762.18811
   4596,   2394.63037,   1762.68811
   4597,   2393.63037,   1763.18811
   4598,   2395.63037,   1762.68811
   4599,   2395.13037,   1763.18811
   4600,   2395.13037,   1762.18811
   4601,   2399.63037,   1762.68811
   4602,   2398.63037,   1763.18811
   4603,   2397.63037,   1762.68811
   4604,   2398.63037,   1762.18811
   4605,   2396.63037,   1763.18811
   4606,   2396.63037,   1762.18811
   4607,   2400.63037,   1762.68811
   4608,   2400.13037,   1763.18811
   4609,   2400.13037,   1762.18811
   4610,   2404.63037,   1762.68811
   4611,   2403.63037,   1763.18811
   4612,   2402.63037,   1762.68811
   4613,   2403.63037,   1762.18811
   4614,   2401.63037,   1763.18811
   4615,   2401.63037,   1762.18811
   4616,   2405.63037,   1762.68811
   4617,   2405.13037,   1763.18811
   4618,   2405.13037,   1762.18811
   4619,   2409.63037,   1762.68811
   4620,   2408.63037,   1763.18811
   4621,   2407.63037,   1762.68811
   4622,   2408.63037,   1762.18811
   4623,   2406.63037,   1763.18811
   4624,   2406.63037,   1762.18811
   4625,   2410.63037,   1762.68811
   4626,   2410.13037,   1763.18811
   4627,   2410.13037,   1762.18811
   4628,   2414.63037,   1762.68811
   4629,   2413.63037,   1763.18811
   4630,   2412.63037,   1762.68811
   4631,   2413.63037,   1762.18811
   4632,   2411.63037,   1763.18811
   4633,   2411.63037,   1762.18811
   4634,   2415.13037,   1762.18811
   4635,   2415.63037,   1762.68811
   4636,   2415.13037,   1763.18811
   4637,   2415.13037,   1758.18811
   4638,   2415.63037,   1759.18811
   4639,   2415.13037,   1760.18811
   4640,   2414.63037,   1759.18811
   4641,   2415.63037,   1761.18811
   4642,   2414.63037,   1761.18811
   4643,   2415.13037,   1757.18811
   4644,   2415.63037,   1757.68811
   4645,   2414.63037,   1757.68811
   4646,   2415.13037,   1753.18811
   4647,   2415.63037,   1754.18811
   4648,   2415.13037,   1755.18811
   4649,   2414.63037,   1754.18811
   4650,   2415.63037,   1756.18811
   4651,   2414.63037,   1756.18811
   4652,   2415.13037,   1752.18811
   4653,   2415.63037,   1752.68811
   4654,   2414.63037,   1752.68811
   4655,   2415.13037,   1748.18811
   4656,   2415.63037,   1749.18811
   4657,   2415.13037,   1750.18811
   4658,   2414.63037,   1749.18811
   4659,   2415.63037,   1751.18811
   4660,   2414.63037,   1751.18811
   4661,   2415.13037,   1698.18811
   4662,   2414.63037,   1697.68811
   4663,   2415.13037,   1697.18811
   4664,   2415.63037,   1697.68811
   4665,   2415.13037,   1747.18811
   4666,   2415.63037,   1747.68811
   4667,   2414.63037,   1747.68811
   4668,   2415.13037,   1743.18811
   4669,   2414.63037,   1742.20984
   4670,   2415.13037,   1741.23157
   4671,   2415.63037,   1742.20984
   4672,   2414.63037,    1740.2533
   4673,   2415.13037,   1739.27502
   4674,   2415.63037,    1740.2533
   4675,   2414.63037,   1738.29675
   4676,   2415.13037,   1737.31848
   4677,   2415.63037,   1738.29675
   4678,   2414.63037,   1736.34033
   4679,   2415.13037,   1735.36206
   4680,   2415.63037,   1736.34033
   4681,   2414.63037,   1734.38379
   4682,   2415.13037,   1733.40552
   4683,   2415.63037,   1734.38379
   4684,   2414.63037,   1732.42725
   4685,   2415.13037,   1731.44897
   4686,   2415.63037,   1732.42725
   4687,   2414.63037,    1730.4707
   4688,   2415.13037,   1729.49243
   4689,   2415.63037,    1730.4707
   4690,   2414.63037,   1728.51416
   4691,   2415.13037,   1727.53589
   4692,   2415.63037,   1728.51416
   4693,   2414.63037,   1726.55762
   4694,   2415.13037,   1725.57947
   4695,   2415.63037,   1726.55762
   4696,   2414.63037,    1724.6012
   4697,   2415.13037,   1723.62292
   4698,   2415.63037,    1724.6012
   4699,   2414.63037,   1722.64465
   4700,   2415.13037,   1721.66638
   4701,   2415.63037,   1722.64465
   4702,   2414.63037,   1720.68811
   4703,   2415.13037,   1719.70984
   4704,   2415.63037,   1720.68811
   4705,   2414.63037,   1718.73157
   4706,   2415.13037,    1717.7533
   4707,   2415.63037,   1718.73157
   4708,   2414.63037,   1716.77502
   4709,   2415.13037,   1715.79675
   4710,   2415.63037,   1716.77502
   4711,   2414.63037,    1714.8186
   4712,   2415.13037,   1713.84033
   4713,   2415.63037,    1714.8186
   4714,   2414.63037,   1712.86206
   4715,   2415.13037,   1711.88379
   4716,   2415.63037,   1712.86206
   4717,   2414.63037,   1710.90552
   4718,   2415.13037,   1709.92725
   4719,   2415.63037,   1710.90552
   4720,   2414.63037,   1708.94897
   4721,   2415.13037,    1707.9707
   4722,   2415.63037,   1708.94897
   4723,   2414.63037,   1706.99243
   4724,   2415.13037,   1706.01416
   4725,   2415.63037,   1706.99243
   4726,   2414.63037,   1705.03589
   4727,   2415.13037,   1704.05762
   4728,   2415.63037,   1705.03589
   4729,   2414.63037,   1703.07935
   4730,   2415.13037,    1702.1012
   4731,   2415.63037,   1703.07935
   4732,   2414.63037,   1701.12292
   4733,   2415.13037,   1700.14465
   4734,   2415.63037,   1701.12292
   4735,   2414.63037,   1699.16638
   4736,   2415.63037,   1699.16638
   4737,   2419.63037,   1687.68811
   4738,   2420.63037,   1687.68811
   4739,   2420.13037,   1688.18811
   4740,   2415.63037,   1687.68811
   4741,   2417.63037,   1687.68811
   4742,   2416.63037,   1688.18811
   4743,   2418.63037,   1688.18811
   4744,   2414.63037,   1687.68811
   4745,   2415.13037,   1688.18811
   4746,   2410.63037,   1687.68811
   4747,   2412.63037,   1687.68811
   4748,   2411.63037,   1688.18811
   4749,   2413.63037,   1688.18811
   4750,   2409.63037,   1687.68811
   4751,   2410.13037,   1688.18811
   4752,   2405.63037,   1687.68811
   4753,   2407.63037,   1687.68811
   4754,   2406.63037,   1688.18811
   4755,   2408.63037,   1688.18811
   4756,   2404.63037,   1687.68811
   4757,   2405.13037,   1688.18811
   4758,   2400.63037,   1687.68811
   4759,   2402.63037,   1687.68811
   4760,   2401.63037,   1688.18811
   4761,   2403.63037,   1688.18811
   4762,   2400.13037,   1688.18811
   4763,   2399.63037,   1687.68811
   4764,   2395.63037,   1687.68811
   4765,   2397.63037,   1687.68811
   4766,   2396.63037,   1688.18811
   4767,   2398.63037,   1688.18811
   4768,   2395.13037,   1688.18811
   4769,   2373.63037,   1697.18811
   4770,   2372.63037,   1696.43811
   4771,   2373.63037,   1695.68811
   4772,   2374.63037,   1696.43811
   4773,   2371.63037,   1697.18811
   4774,   2370.63037,   1696.43811
   4775,   2371.63037,   1695.68811
   4776,   2372.63037,   1694.93811
   4777,   2373.63037,   1694.18811
   4778,   2374.63037,   1694.93811
   4779,   2370.63037,   1694.93811
   4780,   2371.63037,   1694.18811
   4781,   2371.63037,   1698.18811
   4782,   2372.63037,   1699.16638
   4783,   2371.63037,   1700.14465
   4784,   2370.63037,   1699.16638
   4785,   2373.63037,   1698.18811
   4786,   2374.63037,   1699.16638
   4787,   2373.63037,   1700.14465
   4788,   2372.63037,   1701.12292
   4789,   2371.63037,    1702.1012
   4790,   2370.63037,   1701.12292
   4791,   2374.63037,   1701.12292
   4792,   2373.63037,    1702.1012
   4793,   2372.63037,   1703.07935
   4794,   2371.63037,   1704.05762
   4795,   2370.63037,   1703.07935
   4796,   2374.63037,   1703.07935
   4797,   2373.63037,   1704.05762
   4798,   2372.63037,   1705.03589
   4799,   2371.63037,   1706.01416
   4800,   2370.63037,   1705.03589
   4801,   2374.63037,   1705.03589
   4802,   2373.63037,   1706.01416
   4803,   2372.63037,   1706.99243
   4804,   2371.63037,    1707.9707
   4805,   2370.63037,   1706.99243
   4806,   2374.63037,   1706.99243
   4807,   2373.63037,    1707.9707
   4808,   2372.63037,   1708.94897
   4809,   2371.63037,   1709.92725
   4810,   2370.63037,   1708.94897
   4811,   2374.63037,   1708.94897
   4812,   2373.63037,   1709.92725
   4813,   2372.63037,   1710.90552
   4814,   2371.63037,   1711.88379
   4815,   2370.63037,   1710.90552
   4816,   2374.63037,   1710.90552
   4817,   2373.63037,   1711.88379
   4818,   2372.63037,   1712.86206
   4819,   2371.63037,   1713.84033
   4820,   2370.63037,   1712.86206
   4821,   2374.63037,   1712.86206
   4822,   2373.63037,   1713.84033
   4823,   2372.63037,    1714.8186
   4824,   2371.63037,   1715.79675
   4825,   2370.63037,    1714.8186
   4826,   2374.63037,    1714.8186
   4827,   2373.63037,   1715.79675
   4828,   2372.63037,   1716.77502
   4829,   2371.63037,    1717.7533
   4830,   2370.63037,   1716.77502
   4831,   2374.63037,   1716.77502
   4832,   2373.63037,    1717.7533
   4833,   2372.63037,   1718.73157
   4834,   2371.63037,   1719.70984
   4835,   2370.63037,   1718.73157
   4836,   2374.63037,   1718.73157
   4837,   2373.63037,   1719.70984
   4838,   2372.63037,   1720.68811
   4839,   2371.63037,   1721.66638
   4840,   2370.63037,   1720.68811
   4841,   2374.63037,   1720.68811
   4842,   2373.63037,   1721.66638
   4843,   2372.63037,   1722.64465
   4844,   2371.63037,   1723.62292
   4845,   2370.63037,   1722.64465
   4846,   2374.63037,   1722.64465
   4847,   2373.63037,   1723.62292
   4848,   2372.63037,    1724.6012
   4849,   2371.63037,   1725.57947
   4850,   2370.63037,    1724.6012
   4851,   2374.63037,    1724.6012
   4852,   2373.63037,   1725.57947
   4853,   2372.63037,   1726.55762
   4854,   2371.63037,   1727.53589
   4855,   2370.63037,   1726.55762
   4856,   2374.63037,   1726.55762
   4857,   2373.63037,   1727.53589
   4858,   2372.63037,   1728.51416
   4859,   2371.63037,   1729.49243
   4860,   2370.63037,   1728.51416
   4861,   2374.63037,   1728.51416
   4862,   2373.63037,   1729.49243
   4863,   2372.63037,    1730.4707
   4864,   2371.63037,   1731.44897
   4865,   2370.63037,    1730.4707
   4866,   2374.63037,    1730.4707
   4867,   2373.63037,   1731.44897
   4868,   2372.63037,   1732.42725
   4869,   2371.63037,   1733.40552
   4870,   2370.63037,   1732.42725
   4871,   2374.63037,   1732.42725
   4872,   2373.63037,   1733.40552
   4873,   2372.63037,   1734.38379
   4874,   2371.63037,   1735.36206
   4875,   2370.63037,   1734.38379
   4876,   2374.63037,   1734.38379
   4877,   2373.63037,   1735.36206
   4878,   2372.63037,   1736.34033
   4879,   2371.63037,   1737.31848
   4880,   2370.63037,   1736.34033
   4881,   2374.63037,   1736.34033
   4882,   2373.63037,   1737.31848
   4883,   2372.63037,   1738.29675
   4884,   2371.63037,   1739.27502
   4885,   2370.63037,   1738.29675
   4886,   2374.63037,   1738.29675
   4887,   2373.63037,   1739.27502
   4888,   2372.63037,    1740.2533
   4889,   2371.63037,   1741.23157
   4890,   2370.63037,    1740.2533
   4891,   2374.63037,    1740.2533
   4892,   2373.63037,   1741.23157
   4893,   2372.63037,   1742.20984
   4894,   2371.63037,   1743.18811
   4895,   2370.63037,   1742.20984
   4896,   2374.63037,   1742.20984
   4897,   2373.63037,   1743.18811
   4898,   2395.63037,   1689.18811
   4899,   2395.13037,   1690.18811
   4900,   2375.54688,   1695.68811
   4901,   2376.46362,   1696.43811
   4902,   2375.54712,   1697.18811
   4903,   2375.54712,   1694.18811
   4904,   2376.46362,   1694.93811
   4905,   2377.38037,   1695.68811
   4906,   2378.29712,   1696.43811
   4907,   2377.38037,   1697.18811
   4908,   2377.38037,   1694.18811
   4909,   2378.29712,   1694.93811
   4910,   2379.21387,   1695.68811
   4911,   2380.13037,   1696.43811
   4912,   2379.21387,   1697.18811
   4913,   2379.21387,   1694.18811
   4914,   2380.13037,   1694.93811
   4915,   2381.04688,   1695.68811
   4916,   2381.96362,   1696.43811
   4917,   2381.04688,   1697.18811
   4918,   2381.04688,   1694.18811
   4919,   2381.96362,   1694.93811
   4920,   2382.88037,   1695.68811
   4921,   2383.79712,   1696.43811
   4922,   2382.88037,   1697.18811
   4923,   2382.88037,   1694.18811
   4924,   2383.79712,   1694.93811
   4925,   2384.71387,   1695.68811
   4926,   2385.63037,   1696.43811
   4927,   2384.71387,   1697.18811
   4928,   2384.71387,   1694.18811
   4929,   2385.63037,   1694.93811
   4930,   2372.63037,   1697.68811
   4931,   2374.63037,   1697.68811
   4932,   2370.63037,   1697.68811
   4933,   2375.54688,   1741.23157
   4934,   2376.46362,   1742.20984
   4935,   2375.54712,   1743.18811
   4936,   2375.54688,   1739.27502
   4937,   2376.46362,    1740.2533
   4938,   2375.54688,   1737.31848
   4939,   2376.46362,   1738.29675
   4940,   2375.54688,   1735.36206
   4941,   2376.46362,   1736.34033
   4942,   2375.54688,   1733.40552
   4943,   2376.46362,   1734.38379
   4944,   2375.54688,   1731.44897
   4945,   2376.46362,   1732.42725
   4946,   2375.54688,   1729.49243
   4947,   2376.46362,    1730.4707
   4948,   2375.54688,   1727.53589
   4949,   2376.46362,   1728.51416
   4950,   2375.54688,   1725.57947
   4951,   2376.46362,   1726.55762
   4952,   2375.54688,   1723.62292
   4953,   2376.46362,    1724.6012
   4954,   2375.54688,   1721.66638
   4955,   2376.46362,   1722.64465
   4956,   2375.54688,   1719.70984
   4957,   2376.46362,   1720.68811
   4958,   2375.54688,    1717.7533
   4959,   2376.46362,   1718.73157
   4960,   2375.54688,   1715.79675
   4961,   2376.46362,   1716.77502
   4962,   2375.54688,   1713.84033
   4963,   2376.46362,    1714.8186
   4964,   2375.54688,   1711.88379
   4965,   2376.46362,   1712.86206
   4966,   2375.54688,   1709.92725
   4967,   2376.46362,   1710.90552
   4968,   2375.54688,    1707.9707
   4969,   2376.46362,   1708.94897
   4970,   2375.54688,   1706.01416
   4971,   2376.46362,   1706.99243
   4972,   2375.54688,   1704.05762
   4973,   2376.46362,   1705.03589
   4974,   2375.54688,    1702.1012
   4975,   2376.46362,   1703.07935
   4976,   2375.54688,   1700.14465
   4977,   2376.46362,   1701.12292
   4978,   2375.54712,   1698.18811
   4979,   2376.46362,   1699.16638
   4980,   2377.38037,   1741.23157
   4981,   2378.29712,   1742.20984
   4982,   2377.38037,   1743.18811
   4983,   2377.38037,   1739.27502
   4984,   2378.29712,    1740.2533
   4985,   2377.38037,   1737.31848
   4986,   2378.29712,   1738.29675
   4987,   2377.38037,   1735.36206
   4988,   2378.29712,   1736.34033
   4989,   2377.38037,   1733.40552
   4990,   2378.29712,   1734.38379
   4991,   2377.38037,   1731.44897
   4992,   2378.29712,   1732.42725
   4993,   2377.38037,   1729.49243
   4994,   2378.29712,    1730.4707
   4995,   2377.38037,   1727.53589
   4996,   2378.29712,   1728.51416
   4997,   2377.38037,   1725.57947
   4998,   2378.29712,   1726.55762
   4999,   2377.38037,   1723.62292
   5000,   2378.29712,    1724.6012
   5001,   2377.38037,   1721.66638
   5002,   2378.29712,   1722.64465
   5003,   2377.38037,   1719.70984
   5004,   2378.29712,   1720.68811
   5005,   2377.38037,    1717.7533
   5006,   2378.29712,   1718.73157
   5007,   2377.38037,   1715.79675
   5008,   2378.29712,   1716.77502
   5009,   2377.38037,   1713.84033
   5010,   2378.29712,    1714.8186
   5011,   2377.38037,   1711.88379
   5012,   2378.29712,   1712.86206
   5013,   2377.38037,   1709.92725
   5014,   2378.29712,   1710.90552
   5015,   2377.38037,    1707.9707
   5016,   2378.29712,   1708.94897
   5017,   2377.38037,   1706.01416
   5018,   2378.29712,   1706.99243
   5019,   2377.38037,   1704.05762
   5020,   2378.29712,   1705.03589
   5021,   2377.38037,    1702.1012
   5022,   2378.29712,   1703.07935
   5023,   2377.38037,   1700.14465
   5024,   2378.29712,   1701.12292
   5025,   2377.38037,   1698.18811
   5026,   2378.29712,   1699.16638
   5027,   2379.21387,   1741.23157
   5028,   2380.13037,   1742.20984
   5029,   2379.21387,   1743.18811
   5030,   2379.21387,   1739.27502
   5031,   2380.13037,    1740.2533
   5032,   2379.21387,   1737.31848
   5033,   2380.13037,   1738.29675
   5034,   2379.21387,   1735.36206
   5035,   2380.13037,   1736.34033
   5036,   2379.21387,   1733.40552
   5037,   2380.13037,   1734.38379
   5038,   2379.21387,   1731.44897
   5039,   2380.13037,   1732.42725
   5040,   2379.21387,   1729.49243
   5041,   2380.13037,    1730.4707
   5042,   2379.21387,   1727.53589
   5043,   2380.13037,   1728.51416
   5044,   2379.21387,   1725.57947
   5045,   2380.13037,   1726.55762
   5046,   2379.21387,   1723.62292
   5047,   2380.13037,    1724.6012
   5048,   2379.21387,   1721.66638
   5049,   2380.13037,   1722.64465
   5050,   2379.21387,   1719.70984
   5051,   2380.13037,   1720.68811
   5052,   2379.21387,    1717.7533
   5053,   2380.13037,   1718.73157
   5054,   2379.21387,   1715.79675
   5055,   2380.13037,   1716.77502
   5056,   2379.21387,   1713.84033
   5057,   2380.13037,    1714.8186
   5058,   2379.21387,   1711.88379
   5059,   2380.13037,   1712.86206
   5060,   2379.21387,   1709.92725
   5061,   2380.13037,   1710.90552
   5062,   2379.21387,    1707.9707
   5063,   2380.13037,   1708.94897
   5064,   2379.21387,   1706.01416
   5065,   2380.13037,   1706.99243
   5066,   2379.21387,   1704.05762
   5067,   2380.13037,   1705.03589
   5068,   2379.21387,    1702.1012
   5069,   2380.13037,   1703.07935
   5070,   2379.21387,   1700.14465
   5071,   2380.13037,   1701.12292
   5072,   2379.21387,   1698.18811
   5073,   2380.13037,   1699.16638
   5074,   2381.04688,   1741.23157
   5075,   2381.96362,   1742.20984
   5076,   2381.04688,   1743.18811
   5077,   2381.04688,   1739.27502
   5078,   2381.96362,    1740.2533
   5079,   2381.04688,   1737.31848
   5080,   2381.96362,   1738.29675
   5081,   2381.04688,   1735.36206
   5082,   2381.96362,   1736.34033
   5083,   2381.04688,   1733.40552
   5084,   2381.96362,   1734.38379
   5085,   2381.04688,   1731.44897
   5086,   2381.96362,   1732.42725
   5087,   2381.04688,   1729.49243
   5088,   2381.96362,    1730.4707
   5089,   2381.04688,   1727.53589
   5090,   2381.96362,   1728.51416
   5091,   2381.04688,   1725.57947
   5092,   2381.96362,   1726.55762
   5093,   2381.04688,   1723.62292
   5094,   2381.96362,    1724.6012
   5095,   2381.04688,   1721.66638
   5096,   2381.96362,   1722.64465
   5097,   2381.04688,   1719.70984
   5098,   2381.96362,   1720.68811
   5099,   2381.04688,    1717.7533
   5100,   2381.96362,   1718.73157
   5101,   2381.04688,   1715.79675
   5102,   2381.96362,   1716.77502
   5103,   2381.04688,   1713.84033
   5104,   2381.96362,    1714.8186
   5105,   2381.04688,   1711.88379
   5106,   2381.96362,   1712.86206
   5107,   2381.04688,   1709.92725
   5108,   2381.96362,   1710.90552
   5109,   2381.04688,    1707.9707
   5110,   2381.96362,   1708.94897
   5111,   2381.04688,   1706.01416
   5112,   2381.96362,   1706.99243
   5113,   2381.04688,   1704.05762
   5114,   2381.96362,   1705.03589
   5115,   2381.04688,    1702.1012
   5116,   2381.96362,   1703.07935
   5117,   2381.04688,   1700.14465
   5118,   2381.96362,   1701.12292
   5119,   2381.04688,   1698.18811
   5120,   2381.96362,   1699.16638
   5121,   2382.88037,   1741.23157
   5122,   2383.79712,   1742.20984
   5123,   2382.88037,   1743.18811
   5124,   2382.88037,   1739.27502
   5125,   2383.79712,    1740.2533
   5126,   2382.88037,   1737.31848
   5127,   2383.79712,   1738.29675
   5128,   2382.88037,   1735.36206
   5129,   2383.79712,   1736.34033
   5130,   2382.88037,   1733.40552
   5131,   2383.79712,   1734.38379
   5132,   2382.88037,   1731.44897
   5133,   2383.79712,   1732.42725
   5134,   2382.88037,   1729.49243
   5135,   2383.79712,    1730.4707
   5136,   2382.88037,   1727.53589
   5137,   2383.79712,   1728.51416
   5138,   2382.88037,   1725.57947
   5139,   2383.79712,   1726.55762
   5140,   2382.88037,   1723.62292
   5141,   2383.79712,    1724.6012
   5142,   2382.88037,   1721.66638
   5143,   2383.79712,   1722.64465
   5144,   2382.88037,   1719.70984
   5145,   2383.79712,   1720.68811
   5146,   2382.88037,    1717.7533
   5147,   2383.79712,   1718.73157
   5148,   2382.88037,   1715.79675
   5149,   2383.79712,   1716.77502
   5150,   2382.88037,   1713.84033
   5151,   2383.79712,    1714.8186
   5152,   2382.88037,   1711.88379
   5153,   2383.79712,   1712.86206
   5154,   2382.88037,   1709.92725
   5155,   2383.79712,   1710.90552
   5156,   2382.88037,    1707.9707
   5157,   2383.79712,   1708.94897
   5158,   2382.88037,   1706.01416
   5159,   2383.79712,   1706.99243
   5160,   2382.88037,   1704.05762
   5161,   2383.79712,   1705.03589
   5162,   2382.88037,    1702.1012
   5163,   2383.79712,   1703.07935
   5164,   2382.88037,   1700.14465
   5165,   2383.79712,   1701.12292
   5166,   2382.88037,   1698.18811
   5167,   2383.79712,   1699.16638
   5168,   2384.71387,   1741.23157
   5169,   2385.63037,   1742.20984
   5170,   2384.71387,   1743.18811
   5171,   2384.71387,   1739.27502
   5172,   2385.63037,    1740.2533
   5173,   2384.71387,   1737.31848
   5174,   2385.63037,   1738.29675
   5175,   2384.71387,   1735.36206
   5176,   2385.63037,   1736.34033
   5177,   2384.71387,   1733.40552
   5178,   2385.63037,   1734.38379
   5179,   2384.71387,   1731.44897
   5180,   2385.63037,   1732.42725
   5181,   2384.71387,   1729.49243
   5182,   2385.63037,    1730.4707
   5183,   2384.71387,   1727.53589
   5184,   2385.63037,   1728.51416
   5185,   2384.71387,   1725.57947
   5186,   2385.63037,   1726.55762
   5187,   2384.71387,   1723.62292
   5188,   2385.63037,    1724.6012
   5189,   2384.71387,   1721.66638
   5190,   2385.63037,   1722.64465
   5191,   2384.71387,   1719.70984
   5192,   2385.63037,   1720.68811
   5193,   2384.71387,    1717.7533
   5194,   2385.63037,   1718.73157
   5195,   2384.71387,   1715.79675
   5196,   2385.63037,   1716.77502
   5197,   2384.71387,   1713.84033
   5198,   2385.63037,    1714.8186
   5199,   2384.71387,   1711.88379
   5200,   2385.63037,   1712.86206
   5201,   2384.71387,   1709.92725
   5202,   2385.63037,   1710.90552
   5203,   2384.71387,    1707.9707
   5204,   2385.63037,   1708.94897
   5205,   2384.71387,   1706.01416
   5206,   2385.63037,   1706.99243
   5207,   2384.71387,   1704.05762
   5208,   2385.63037,   1705.03589
   5209,   2384.71387,    1702.1012
   5210,   2385.63037,   1703.07935
   5211,   2384.71387,   1700.14465
   5212,   2385.63037,   1701.12292
   5213,   2384.71387,   1698.18811
   5214,   2385.63037,   1699.16638
   5215,   2395.63037,   1691.18811
   5216,   2395.13037,   1692.18811
   5217,   2386.63037,   1695.68811
   5218,   2387.63037,   1696.43811
   5219,   2386.63037,   1697.18811
   5220,   2387.63037,   1694.93811
   5221,   2388.63037,   1695.68811
   5222,   2389.63037,   1696.43811
   5223,   2388.63037,   1697.18811
   5224,   2389.63037,   1694.93811
   5225,   2383.79712,   1697.68811
   5226,   2385.63037,   1697.68811
   5227,   2381.96362,   1697.68811
   5228,   2380.13037,   1697.68811
   5229,   2378.29712,   1697.68811
   5230,   2376.46362,   1697.68811
   5231,   2386.63037,   1741.23157
   5232,   2387.63037,   1742.20984
   5233,   2386.63037,   1743.18811
   5234,   2386.63037,   1739.27502
   5235,   2387.63037,    1740.2533
   5236,   2386.63037,   1737.31848
   5237,   2387.63037,   1738.29675
   5238,   2386.63037,   1735.36206
   5239,   2387.63037,   1736.34033
   5240,   2386.63037,   1733.40552
   5241,   2387.63037,   1734.38379
   5242,   2386.63037,   1731.44897
   5243,   2387.63037,   1732.42725
   5244,   2386.63037,   1729.49243
   5245,   2387.63037,    1730.4707
   5246,   2386.63037,   1727.53589
   5247,   2387.63037,   1728.51416
   5248,   2386.63037,   1725.57947
   5249,   2387.63037,   1726.55762
   5250,   2386.63037,   1723.62292
   5251,   2387.63037,    1724.6012
   5252,   2386.63037,   1721.66638
   5253,   2387.63037,   1722.64465
   5254,   2386.63037,   1719.70984
   5255,   2387.63037,   1720.68811
   5256,   2386.63037,    1717.7533
   5257,   2387.63037,   1718.73157
   5258,   2386.63037,   1715.79675
   5259,   2387.63037,   1716.77502
   5260,   2386.63037,   1713.84033
   5261,   2387.63037,    1714.8186
   5262,   2386.63037,   1711.88379
   5263,   2387.63037,   1712.86206
   5264,   2386.63037,   1709.92725
   5265,   2387.63037,   1710.90552
   5266,   2386.63037,    1707.9707
   5267,   2387.63037,   1708.94897
   5268,   2386.63037,   1706.01416
   5269,   2387.63037,   1706.99243
   5270,   2386.63037,   1704.05762
   5271,   2387.63037,   1705.03589
   5272,   2386.63037,    1702.1012
   5273,   2387.63037,   1703.07935
   5274,   2386.63037,   1700.14465
   5275,   2387.63037,   1701.12292
   5276,   2386.63037,   1698.18811
   5277,   2387.63037,   1699.16638
   5278,   2388.63037,   1741.23157
   5279,   2389.63037,   1742.20984
   5280,   2388.63037,   1743.18811
   5281,   2388.63037,   1739.27502
   5282,   2389.63037,    1740.2533
   5283,   2388.63037,   1737.31848
   5284,   2389.63037,   1738.29675
   5285,   2388.63037,   1735.36206
   5286,   2389.63037,   1736.34033
   5287,   2388.63037,   1733.40552
   5288,   2389.63037,   1734.38379
   5289,   2388.63037,   1731.44897
   5290,   2389.63037,   1732.42725
   5291,   2388.63037,   1729.49243
   5292,   2389.63037,    1730.4707
   5293,   2388.63037,   1727.53589
   5294,   2389.63037,   1728.51416
   5295,   2388.63037,   1725.57947
   5296,   2389.63037,   1726.55762
   5297,   2388.63037,   1723.62292
   5298,   2389.63037,    1724.6012
   5299,   2388.63037,   1721.66638
   5300,   2389.63037,   1722.64465
   5301,   2388.63037,   1719.70984
   5302,   2389.63037,   1720.68811
   5303,   2388.63037,    1717.7533
   5304,   2389.63037,   1718.73157
   5305,   2388.63037,   1715.79675
   5306,   2389.63037,   1716.77502
   5307,   2388.63037,   1713.84033
   5308,   2389.63037,    1714.8186
   5309,   2388.63037,   1711.88379
   5310,   2389.63037,   1712.86206
   5311,   2388.63037,   1709.92725
   5312,   2389.63037,   1710.90552
   5313,   2388.63037,    1707.9707
   5314,   2389.63037,   1708.94897
   5315,   2388.63037,   1706.01416
   5316,   2389.63037,   1706.99243
   5317,   2388.63037,   1704.05762
   5318,   2389.63037,   1705.03589
   5319,   2388.63037,    1702.1012
   5320,   2389.63037,   1703.07935
   5321,   2388.63037,   1700.14465
   5322,   2389.63037,   1701.12292
   5323,   2388.63037,   1698.18811
   5324,   2389.63037,   1699.16638
   5325,   2395.13037,   1693.18811
   5326,   2395.63037,   1692.68811
   5327,   2390.63037,   1695.68811
   5328,   2391.63037,   1696.43811
   5329,   2390.63037,   1697.18811
   5330,   2391.63037,   1694.93811
   5331,   2387.63037,   1697.68811
   5332,   2389.63037,   1697.68811
   5333,   2390.63037,   1741.23157
   5334,   2391.63037,   1742.20984
   5335,   2390.63037,   1743.18811
   5336,   2390.63037,   1739.27502
   5337,   2391.63037,    1740.2533
   5338,   2390.63037,   1737.31848
   5339,   2391.63037,   1738.29675
   5340,   2390.63037,   1735.36206
   5341,   2391.63037,   1736.34033
   5342,   2390.63037,   1733.40552
   5343,   2391.63037,   1734.38379
   5344,   2390.63037,   1731.44897
   5345,   2391.63037,   1732.42725
   5346,   2390.63037,   1729.49243
   5347,   2391.63037,    1730.4707
   5348,   2390.63037,   1727.53589
   5349,   2391.63037,   1728.51416
   5350,   2390.63037,   1725.57947
   5351,   2391.63037,   1726.55762
   5352,   2390.63037,   1723.62292
   5353,   2391.63037,    1724.6012
   5354,   2390.63037,   1721.66638
   5355,   2391.63037,   1722.64465
   5356,   2390.63037,   1719.70984
   5357,   2391.63037,   1720.68811
   5358,   2390.63037,    1717.7533
   5359,   2391.63037,   1718.73157
   5360,   2390.63037,   1715.79675
   5361,   2391.63037,   1716.77502
   5362,   2390.63037,   1713.84033
   5363,   2391.63037,    1714.8186
   5364,   2390.63037,   1711.88379
   5365,   2391.63037,   1712.86206
   5366,   2390.63037,   1709.92725
   5367,   2391.63037,   1710.90552
   5368,   2390.63037,    1707.9707
   5369,   2391.63037,   1708.94897
   5370,   2390.63037,   1706.01416
   5371,   2391.63037,   1706.99243
   5372,   2390.63037,   1704.05762
   5373,   2391.63037,   1705.03589
   5374,   2390.63037,    1702.1012
   5375,   2391.63037,   1703.07935
   5376,   2390.63037,   1700.14465
   5377,   2391.63037,   1701.12292
   5378,   2390.63037,   1698.18811
   5379,   2391.63037,   1699.16638
   5380,   2395.63037,   1693.68811
   5381,   2395.13037,   1694.18811
   5382,   2392.13037,   1695.68811
   5383,   2392.63037,   1696.43811
   5384,   2392.13037,   1697.18811
   5385,   2392.63037,   1694.93811
   5386,   2391.63037,   1697.68811
   5387,   2392.13037,   1741.23157
   5388,   2392.63037,   1742.20984
   5389,   2392.13037,   1743.18811
   5390,   2392.13037,   1739.27502
   5391,   2392.63037,    1740.2533
   5392,   2392.13037,   1737.31848
   5393,   2392.63037,   1738.29675
   5394,   2392.13037,   1735.36206
   5395,   2392.63037,   1736.34033
   5396,   2392.13037,   1733.40552
   5397,   2392.63037,   1734.38379
   5398,   2392.13037,   1731.44897
   5399,   2392.63037,   1732.42725
   5400,   2392.13037,   1729.49243
   5401,   2392.63037,    1730.4707
   5402,   2392.13037,   1727.53589
   5403,   2392.63037,   1728.51416
   5404,   2392.13037,   1725.57947
   5405,   2392.63037,   1726.55762
   5406,   2392.13037,   1723.62292
   5407,   2392.63037,    1724.6012
   5408,   2392.13037,   1721.66638
   5409,   2392.63037,   1722.64465
   5410,   2392.13037,   1719.70984
   5411,   2392.63037,   1720.68811
   5412,   2392.13037,    1717.7533
   5413,   2392.63037,   1718.73157
   5414,   2392.13037,   1715.79675
   5415,   2392.63037,   1716.77502
   5416,   2392.13037,   1713.84033
   5417,   2392.63037,    1714.8186
   5418,   2392.13037,   1711.88379
   5419,   2392.63037,   1712.86206
   5420,   2392.13037,   1709.92725
   5421,   2392.63037,   1710.90552
   5422,   2392.13037,    1707.9707
   5423,   2392.63037,   1708.94897
   5424,   2392.13037,   1706.01416
   5425,   2392.63037,   1706.99243
   5426,   2392.13037,   1704.05762
   5427,   2392.63037,   1705.03589
   5428,   2392.13037,    1702.1012
   5429,   2392.63037,   1703.07935
   5430,   2392.13037,   1700.14465
   5431,   2392.63037,   1701.12292
   5432,   2392.13037,   1698.18811
   5433,   2392.63037,   1699.16638
   5434,   2395.13037,   1697.18811
   5435,   2394.63037,   1696.43811
   5436,   2395.13037,   1695.68811
   5437,   2395.63037,   1696.43811
   5438,   2394.63037,   1694.93811
   5439,   2395.63037,   1694.93811
   5440,   2394.63037,   1742.20984
   5441,   2395.13037,   1741.23157
   5442,   2395.63037,   1742.20984
   5443,   2395.13037,   1743.18811
   5444,   2394.63037,    1740.2533
   5445,   2395.13037,   1739.27502
   5446,   2395.63037,    1740.2533
   5447,   2394.63037,   1738.29675
   5448,   2395.13037,   1737.31848
   5449,   2395.63037,   1738.29675
   5450,   2394.63037,   1736.34033
   5451,   2395.13037,   1735.36206
   5452,   2395.63037,   1736.34033
   5453,   2394.63037,   1734.38379
   5454,   2395.13037,   1733.40552
   5455,   2395.63037,   1734.38379
   5456,   2394.63037,   1732.42725
   5457,   2395.13037,   1731.44897
   5458,   2395.63037,   1732.42725
   5459,   2394.63037,    1730.4707
   5460,   2395.13037,   1729.49243
   5461,   2395.63037,    1730.4707
   5462,   2394.63037,   1728.51416
   5463,   2395.13037,   1727.53589
   5464,   2395.63037,   1728.51416
   5465,   2394.63037,   1726.55762
   5466,   2395.13037,   1725.57947
   5467,   2395.63037,   1726.55762
   5468,   2394.63037,    1724.6012
   5469,   2395.13037,   1723.62292
   5470,   2395.63037,    1724.6012
   5471,   2394.63037,   1722.64465
   5472,   2395.13037,   1721.66638
   5473,   2395.63037,   1722.64465
   5474,   2394.63037,   1720.68811
   5475,   2395.13037,   1719.70984
   5476,   2395.63037,   1720.68811
   5477,   2394.63037,   1718.73157
   5478,   2395.13037,    1717.7533
   5479,   2395.63037,   1718.73157
   5480,   2394.63037,   1716.77502
   5481,   2395.13037,   1715.79675
   5482,   2395.63037,   1716.77502
   5483,   2394.63037,    1714.8186
   5484,   2395.13037,   1713.84033
   5485,   2395.63037,    1714.8186
   5486,   2394.63037,   1712.86206
   5487,   2395.13037,   1711.88379
   5488,   2395.63037,   1712.86206
   5489,   2394.63037,   1710.90552
   5490,   2395.13037,   1709.92725
   5491,   2395.63037,   1710.90552
   5492,   2394.63037,   1708.94897
   5493,   2395.13037,    1707.9707
   5494,   2395.63037,   1708.94897
   5495,   2394.63037,   1706.99243
   5496,   2395.13037,   1706.01416
   5497,   2395.63037,   1706.99243
   5498,   2394.63037,   1705.03589
   5499,   2395.13037,   1704.05762
   5500,   2395.63037,   1705.03589
   5501,   2394.63037,   1703.07935
   5502,   2395.13037,    1702.1012
   5503,   2395.63037,   1703.07935
   5504,   2394.63037,   1701.12292
   5505,   2395.13037,   1700.14465
   5506,   2395.63037,   1701.12292
   5507,   2394.63037,   1699.16638
   5508,   2395.13037,   1698.18811
   5509,   2395.63037,   1699.16638
   5510,   2393.63037,   1695.68811
   5511,   2393.63037,   1697.18811
   5512,   2392.63037,   1697.68811
   5513,   2393.63037,   1741.23157
   5514,   2393.63037,   1743.18811
   5515,   2393.63037,   1739.27502
   5516,   2393.63037,   1737.31848
   5517,   2393.63037,   1735.36206
   5518,   2393.63037,   1733.40552
   5519,   2393.63037,   1731.44897
   5520,   2393.63037,   1729.49243
   5521,   2393.63037,   1727.53589
   5522,   2393.63037,   1725.57947
   5523,   2393.63037,   1723.62292
   5524,   2393.63037,   1721.66638
   5525,   2393.63037,   1719.70984
   5526,   2393.63037,    1717.7533
   5527,   2393.63037,   1715.79675
   5528,   2393.63037,   1713.84033
   5529,   2393.63037,   1711.88379
   5530,   2393.63037,   1709.92725
   5531,   2393.63037,    1707.9707
   5532,   2393.63037,   1706.01416
   5533,   2393.63037,   1704.05762
   5534,   2393.63037,    1702.1012
   5535,   2393.63037,   1700.14465
   5536,   2393.63037,   1698.18811
   5537,   2394.63037,   1697.68811
   5538,   2395.63037,   1697.68811
   5539,   2366.63037,   1767.68811
   5540,   2366.13037,   1768.18811
   5541,   2365.63037,   1767.68811
   5542,   2366.13037,   1767.18811
   5543,   2370.63037,   1767.68811
   5544,   2369.63037,   1768.18811
   5545,   2368.63037,   1767.68811
   5546,   2369.63037,   1767.18811
   5547,   2367.63037,   1768.18811
   5548,   2367.63037,   1767.18811
   5549,   2371.63037,   1767.18811
   5550,   2372.63037,   1767.68811
   5551,   2371.63037,   1768.18811
   5552,   2373.63037,   1767.18811
   5553,   2374.63037,   1767.68811
   5554,   2373.63037,   1768.18811
   5555,   2375.54712,   1767.18811
   5556,   2376.46362,   1767.68811
   5557,   2375.54712,   1768.18811
   5558,   2377.38037,   1767.18811
   5559,   2378.29712,   1767.68811
   5560,   2377.38037,   1768.18811
   5561,   2379.21387,   1767.18811
   5562,   2380.13037,   1767.68811
   5563,   2379.21387,   1768.18811
   5564,   2381.04688,   1767.18811
   5565,   2381.96362,   1767.68811
   5566,   2381.04688,   1768.18811
   5567,   2382.88037,   1767.18811
   5568,   2383.79712,   1767.68811
   5569,   2382.88037,   1768.18811
   5570,   2384.71387,   1767.18811
   5571,   2385.63037,   1767.68811
   5572,   2384.71387,   1768.18811
   5573,   2386.63037,   1767.18811
   5574,   2387.63037,   1767.68811
   5575,   2386.63037,   1768.18811
   5576,   2388.63037,   1767.18811
   5577,   2389.63037,   1767.68811
   5578,   2388.63037,   1768.18811
   5579,   2390.63037,   1767.18811
   5580,   2391.63037,   1767.68811
   5581,   2390.63037,   1768.18811
   5582,   2392.13037,   1767.18811
   5583,   2392.63037,   1767.68811
   5584,   2392.13037,   1768.18811
   5585,   2393.63037,   1767.18811
   5586,   2394.63037,   1767.68811
   5587,   2393.63037,   1768.18811
   5588,   2395.63037,   1767.68811
   5589,   2395.13037,   1768.18811
   5590,   2395.13037,   1767.18811
   5591,   2399.63037,   1767.68811
   5592,   2398.63037,   1768.18811
   5593,   2397.63037,   1767.68811
   5594,   2398.63037,   1767.18811
   5595,   2396.63037,   1768.18811
   5596,   2396.63037,   1767.18811
   5597,   2400.63037,   1767.68811
   5598,   2400.13037,   1768.18811
   5599,   2400.13037,   1767.18811
   5600,   2404.63037,   1767.68811
   5601,   2403.63037,   1768.18811
   5602,   2402.63037,   1767.68811
   5603,   2403.63037,   1767.18811
   5604,   2401.63037,   1768.18811
   5605,   2401.63037,   1767.18811
   5606,   2405.63037,   1767.68811
   5607,   2405.13037,   1768.18811
   5608,   2405.13037,   1767.18811
   5609,   2409.63037,   1767.68811
   5610,   2408.63037,   1768.18811
   5611,   2407.63037,   1767.68811
   5612,   2408.63037,   1767.18811
   5613,   2406.63037,   1768.18811
   5614,   2406.63037,   1767.18811
   5615,   2410.63037,   1767.68811
   5616,   2410.13037,   1768.18811
   5617,   2410.13037,   1767.18811
   5618,   2414.63037,   1767.68811
   5619,   2413.63037,   1768.18811
   5620,   2412.63037,   1767.68811
   5621,   2413.63037,   1767.18811
   5622,   2411.63037,   1768.18811
   5623,   2411.63037,   1767.18811
   5624,   2415.63037,   1767.68811
   5625,   2415.13037,   1768.18811
   5626,   2415.13037,   1767.18811
   5627,   2419.63037,   1767.68811
   5628,   2418.63037,   1768.18811
   5629,   2417.63037,   1767.68811
   5630,   2418.63037,   1767.18811
   5631,   2416.63037,   1768.18811
   5632,   2416.63037,   1767.18811
   5633,   2420.13037,   1767.18811
   5634,   2420.63037,   1767.68811
   5635,   2420.13037,   1768.18811
   5636,   2420.13037,   1763.18811
   5637,   2420.63037,   1764.18811
   5638,   2420.13037,   1765.18811
   5639,   2419.63037,   1764.18811
   5640,   2420.63037,   1766.18811
   5641,   2419.63037,   1766.18811
   5642,   2420.13037,   1762.18811
   5643,   2420.63037,   1762.68811
   5644,   2419.63037,   1762.68811
   5645,   2420.13037,   1758.18811
   5646,   2420.63037,   1759.18811
   5647,   2420.13037,   1760.18811
   5648,   2419.63037,   1759.18811
   5649,   2420.63037,   1761.18811
   5650,   2419.63037,   1761.18811
   5651,   2420.13037,   1757.18811
   5652,   2420.63037,   1757.68811
   5653,   2419.63037,   1757.68811
   5654,   2420.13037,   1753.18811
   5655,   2420.63037,   1754.18811
   5656,   2420.13037,   1755.18811
   5657,   2419.63037,   1754.18811
   5658,   2420.63037,   1756.18811
   5659,   2419.63037,   1756.18811
   5660,   2420.13037,   1752.18811
   5661,   2420.63037,   1752.68811
   5662,   2419.63037,   1752.68811
   5663,   2420.13037,   1748.18811
   5664,   2420.63037,   1749.18811
   5665,   2420.13037,   1750.18811
   5666,   2419.63037,   1749.18811
   5667,   2420.63037,   1751.18811
   5668,   2419.63037,   1751.18811
   5669,   2420.13037,   1698.18811
   5670,   2419.63037,   1697.68811
   5671,   2420.13037,   1697.18811
   5672,   2420.63037,   1697.68811
   5673,   2420.13037,   1747.18811
   5674,   2420.63037,   1747.68811
   5675,   2419.63037,   1747.68811
   5676,   2420.13037,   1743.18811
   5677,   2419.63037,   1742.20984
   5678,   2420.13037,   1741.23157
   5679,   2420.63037,   1742.20984
   5680,   2419.63037,    1740.2533
   5681,   2420.13037,   1739.27502
   5682,   2420.63037,    1740.2533
   5683,   2419.63037,   1738.29675
   5684,   2420.13037,   1737.31848
   5685,   2420.63037,   1738.29675
   5686,   2419.63037,   1736.34033
   5687,   2420.13037,   1735.36206
   5688,   2420.63037,   1736.34033
   5689,   2419.63037,   1734.38379
   5690,   2420.13037,   1733.40552
   5691,   2420.63037,   1734.38379
   5692,   2419.63037,   1732.42725
   5693,   2420.13037,   1731.44897
   5694,   2420.63037,   1732.42725
   5695,   2419.63037,    1730.4707
   5696,   2420.13037,   1729.49243
   5697,   2420.63037,    1730.4707
   5698,   2419.63037,   1728.51416
   5699,   2420.13037,   1727.53589
   5700,   2420.63037,   1728.51416
   5701,   2419.63037,   1726.55762
   5702,   2420.13037,   1725.57947
   5703,   2420.63037,   1726.55762
   5704,   2419.63037,    1724.6012
   5705,   2420.13037,   1723.62292
   5706,   2420.63037,    1724.6012
   5707,   2419.63037,   1722.64465
   5708,   2420.13037,   1721.66638
   5709,   2420.63037,   1722.64465
   5710,   2419.63037,   1720.68811
   5711,   2420.13037,   1719.70984
   5712,   2420.63037,   1720.68811
   5713,   2419.63037,   1718.73157
   5714,   2420.13037,    1717.7533
   5715,   2420.63037,   1718.73157
   5716,   2419.63037,   1716.77502
   5717,   2420.13037,   1715.79675
   5718,   2420.63037,   1716.77502
   5719,   2419.63037,    1714.8186
   5720,   2420.13037,   1713.84033
   5721,   2420.63037,    1714.8186
   5722,   2419.63037,   1712.86206
   5723,   2420.13037,   1711.88379
   5724,   2420.63037,   1712.86206
   5725,   2419.63037,   1710.90552
   5726,   2420.13037,   1709.92725
   5727,   2420.63037,   1710.90552
   5728,   2419.63037,   1708.94897
   5729,   2420.13037,    1707.9707
   5730,   2420.63037,   1708.94897
   5731,   2419.63037,   1706.99243
   5732,   2420.13037,   1706.01416
   5733,   2420.63037,   1706.99243
   5734,   2419.63037,   1705.03589
   5735,   2420.13037,   1704.05762
   5736,   2420.63037,   1705.03589
   5737,   2419.63037,   1703.07935
   5738,   2420.13037,    1702.1012
   5739,   2420.63037,   1703.07935
   5740,   2419.63037,   1701.12292
   5741,   2420.13037,   1700.14465
   5742,   2420.63037,   1701.12292
   5743,   2419.63037,   1699.16638
   5744,   2420.63037,   1699.16638
   5745,   2430.63037,   1683.68811
   5746,   2431.63037,   1683.18811
   5747,   2432.63037,   1683.68811
   5748,   2431.63037,   1684.18811
   5749,   2433.63037,   1683.18811
   5750,   2434.63037,   1683.68811
   5751,   2433.63037,   1684.18811
   5752,   2435.63037,   1683.18811
   5753,   2436.63037,   1683.68811
   5754,   2435.63037,   1684.18811
   5755,   2437.63037,   1683.18811
   5756,   2438.63037,   1683.68811
   5757,   2437.63037,   1684.18811
   5758,   2439.63037,   1683.18811
   5759,   2440.63037,   1683.68811
   5760,   2439.63037,   1684.18811
   5761,   2429.63037,   1683.68811
   5762,   2430.13037,   1683.18811
   5763,   2430.13037,   1684.18811
   5764,   2425.63037,   1683.68811
   5765,   2426.63037,   1683.18811
   5766,   2427.63037,   1683.68811
   5767,   2426.63037,   1684.18811
   5768,   2428.63037,   1683.18811
   5769,   2428.63037,   1684.18811
   5770,   2424.63037,   1683.68811
   5771,   2423.63037,   1684.18811
   5772,   2422.63037,   1683.68811
   5773,   2423.63037,   1683.18811
   5774,   2421.63037,   1684.18811
   5775,   2420.63037,   1683.68811
   5776,   2421.63037,   1683.18811
   5777,   2366.63037,   1772.68811
   5778,   2366.13037,   1773.18811
   5779,   2365.63037,   1772.68811
   5780,   2366.13037,   1772.18811
   5781,   2370.63037,   1772.68811
   5782,   2369.63037,   1773.18811
   5783,   2368.63037,   1772.68811
   5784,   2369.63037,   1772.18811
   5785,   2367.63037,   1773.18811
   5786,   2367.63037,   1772.18811
   5787,   2371.63037,   1772.18811
   5788,   2372.63037,   1772.68811
   5789,   2371.63037,   1773.18811
   5790,   2373.63037,   1772.18811
   5791,   2374.63037,   1772.68811
   5792,   2373.63037,   1773.18811
   5793,   2375.54712,   1772.18811
   5794,   2376.46362,   1772.68811
   5795,   2375.54712,   1773.18811
   5796,   2377.38037,   1772.18811
   5797,   2378.29712,   1772.68811
   5798,   2377.38037,   1773.18811
   5799,   2379.21387,   1772.18811
   5800,   2380.13037,   1772.68811
   5801,   2379.21387,   1773.18811
   5802,   2381.04688,   1772.18811
   5803,   2381.96362,   1772.68811
   5804,   2381.04688,   1773.18811
   5805,   2382.88037,   1772.18811
   5806,   2383.79712,   1772.68811
   5807,   2382.88037,   1773.18811
   5808,   2384.71387,   1772.18811
   5809,   2385.63037,   1772.68811
   5810,   2384.71387,   1773.18811
   5811,   2386.63037,   1772.18811
   5812,   2387.63037,   1772.68811
   5813,   2386.63037,   1773.18811
   5814,   2388.63037,   1772.18811
   5815,   2389.63037,   1772.68811
   5816,   2388.63037,   1773.18811
   5817,   2390.63037,   1772.18811
   5818,   2391.63037,   1772.68811
   5819,   2390.63037,   1773.18811
   5820,   2392.13037,   1772.18811
   5821,   2392.63037,   1772.68811
   5822,   2392.13037,   1773.18811
   5823,   2393.63037,   1772.18811
   5824,   2394.63037,   1772.68811
   5825,   2393.63037,   1773.18811
   5826,   2395.63037,   1772.68811
   5827,   2395.13037,   1773.18811
   5828,   2395.13037,   1772.18811
   5829,   2399.63037,   1772.68811
   5830,   2398.63037,   1773.18811
   5831,   2397.63037,   1772.68811
   5832,   2398.63037,   1772.18811
   5833,   2396.63037,   1773.18811
   5834,   2396.63037,   1772.18811
   5835,   2400.63037,   1772.68811
   5836,   2400.13037,   1773.18811
   5837,   2400.13037,   1772.18811
   5838,   2404.63037,   1772.68811
   5839,   2403.63037,   1773.18811
   5840,   2402.63037,   1772.68811
   5841,   2403.63037,   1772.18811
   5842,   2401.63037,   1773.18811
   5843,   2401.63037,   1772.18811
   5844,   2405.63037,   1772.68811
   5845,   2405.13037,   1773.18811
   5846,   2405.13037,   1772.18811
   5847,   2409.63037,   1772.68811
   5848,   2408.63037,   1773.18811
   5849,   2407.63037,   1772.68811
   5850,   2408.63037,   1772.18811
   5851,   2406.63037,   1773.18811
   5852,   2406.63037,   1772.18811
   5853,   2410.63037,   1772.68811
   5854,   2410.13037,   1773.18811
   5855,   2410.13037,   1772.18811
   5856,   2414.63037,   1772.68811
   5857,   2413.63037,   1773.18811
   5858,   2412.63037,   1772.68811
   5859,   2413.63037,   1772.18811
   5860,   2411.63037,   1773.18811
   5861,   2411.63037,   1772.18811
   5862,   2415.63037,   1772.68811
   5863,   2415.13037,   1773.18811
   5864,   2415.13037,   1772.18811
   5865,   2419.63037,   1772.68811
   5866,   2418.63037,   1773.18811
   5867,   2417.63037,   1772.68811
   5868,   2418.63037,   1772.18811
   5869,   2416.63037,   1773.18811
   5870,   2416.63037,   1772.18811
   5871,   2420.63037,   1772.68811
   5872,   2420.13037,   1773.18811
   5873,   2420.13037,   1772.18811
   5874,   2424.63037,   1772.68811
   5875,   2423.63037,   1773.18811
   5876,   2422.63037,   1772.68811
   5877,   2423.63037,   1772.18811
   5878,   2421.63037,   1773.18811
   5879,   2421.63037,   1772.18811
   5880,   2425.13037,   1772.18811
   5881,   2425.63037,   1772.68811
   5882,   2425.13037,   1773.18811
   5883,   2425.13037,   1768.18811
   5884,   2425.63037,   1769.18811
   5885,   2425.13037,   1770.18811
   5886,   2424.63037,   1769.18811
   5887,   2425.63037,   1771.18811
   5888,   2424.63037,   1771.18811
   5889,   2425.13037,   1767.18811
   5890,   2425.63037,   1767.68811
   5891,   2424.63037,   1767.68811
   5892,   2425.13037,   1763.18811
   5893,   2425.63037,   1764.18811
   5894,   2425.13037,   1765.18811
   5895,   2424.63037,   1764.18811
   5896,   2425.63037,   1766.18811
   5897,   2424.63037,   1766.18811
   5898,   2425.13037,   1762.18811
   5899,   2425.63037,   1762.68811
   5900,   2424.63037,   1762.68811
   5901,   2425.13037,   1758.18811
   5902,   2425.63037,   1759.18811
   5903,   2425.13037,   1760.18811
   5904,   2424.63037,   1759.18811
   5905,   2425.63037,   1761.18811
   5906,   2424.63037,   1761.18811
   5907,   2425.13037,   1757.18811
   5908,   2425.63037,   1757.68811
   5909,   2424.63037,   1757.68811
   5910,   2425.13037,   1753.18811
   5911,   2425.63037,   1754.18811
   5912,   2425.13037,   1755.18811
   5913,   2424.63037,   1754.18811
   5914,   2425.63037,   1756.18811
   5915,   2424.63037,   1756.18811
   5916,   2425.13037,   1752.18811
   5917,   2425.63037,   1752.68811
   5918,   2424.63037,   1752.68811
   5919,   2425.13037,   1748.18811
   5920,   2425.63037,   1749.18811
   5921,   2425.13037,   1750.18811
   5922,   2424.63037,   1749.18811
   5923,   2425.63037,   1751.18811
   5924,   2424.63037,   1751.18811
   5925,   2425.13037,   1698.18811
   5926,   2424.63037,   1697.68811
   5927,   2425.13037,   1697.18811
   5928,   2425.63037,   1697.68811
   5929,   2425.13037,   1747.18811
   5930,   2425.63037,   1747.68811
   5931,   2424.63037,   1747.68811
   5932,   2425.13037,   1743.18811
   5933,   2424.63037,   1742.20984
   5934,   2425.13037,   1741.23157
   5935,   2425.63037,   1742.20984
   5936,   2424.63037,    1740.2533
   5937,   2425.13037,   1739.27502
   5938,   2425.63037,    1740.2533
   5939,   2424.63037,   1738.29675
   5940,   2425.13037,   1737.31848
   5941,   2425.63037,   1738.29675
   5942,   2424.63037,   1736.34033
   5943,   2425.13037,   1735.36206
   5944,   2425.63037,   1736.34033
   5945,   2424.63037,   1734.38379
   5946,   2425.13037,   1733.40552
   5947,   2425.63037,   1734.38379
   5948,   2424.63037,   1732.42725
   5949,   2425.13037,   1731.44897
   5950,   2425.63037,   1732.42725
   5951,   2424.63037,    1730.4707
   5952,   2425.13037,   1729.49243
   5953,   2425.63037,    1730.4707
   5954,   2424.63037,   1728.51416
   5955,   2425.13037,   1727.53589
   5956,   2425.63037,   1728.51416
   5957,   2424.63037,   1726.55762
   5958,   2425.13037,   1725.57947
   5959,   2425.63037,   1726.55762
   5960,   2424.63037,    1724.6012
   5961,   2425.13037,   1723.62292
   5962,   2425.63037,    1724.6012
   5963,   2424.63037,   1722.64465
   5964,   2425.13037,   1721.66638
   5965,   2425.63037,   1722.64465
   5966,   2424.63037,   1720.68811
   5967,   2425.13037,   1719.70984
   5968,   2425.63037,   1720.68811
   5969,   2424.63037,   1718.73157
   5970,   2425.13037,    1717.7533
   5971,   2425.63037,   1718.73157
   5972,   2424.63037,   1716.77502
   5973,   2425.13037,   1715.79675
   5974,   2425.63037,   1716.77502
   5975,   2424.63037,    1714.8186
   5976,   2425.13037,   1713.84033
   5977,   2425.63037,    1714.8186
   5978,   2424.63037,   1712.86206
   5979,   2425.13037,   1711.88379
   5980,   2425.63037,   1712.86206
   5981,   2424.63037,   1710.90552
   5982,   2425.13037,   1709.92725
   5983,   2425.63037,   1710.90552
   5984,   2424.63037,   1708.94897
   5985,   2425.13037,    1707.9707
   5986,   2425.63037,   1708.94897
   5987,   2424.63037,   1706.99243
   5988,   2425.13037,   1706.01416
   5989,   2425.63037,   1706.99243
   5990,   2424.63037,   1705.03589
   5991,   2425.13037,   1704.05762
   5992,   2425.63037,   1705.03589
   5993,   2424.63037,   1703.07935
   5994,   2425.13037,    1702.1012
   5995,   2425.63037,   1703.07935
   5996,   2424.63037,   1701.12292
   5997,   2425.13037,   1700.14465
   5998,   2425.63037,   1701.12292
   5999,   2424.63037,   1699.16638
   6000,   2425.63037,   1699.16638
   6001,   2430.63037,   1685.68811
   6002,   2432.63037,   1685.68811
   6003,   2431.63037,   1687.18811
   6004,   2434.63037,   1685.68811
   6005,   2433.63037,   1687.18811
   6006,   2436.63037,   1685.68811
   6007,   2435.63037,   1687.18811
   6008,   2438.63037,   1685.68811
   6009,   2437.63037,   1687.18811
   6010,   2440.63037,   1685.68811
   6011,   2439.63037,   1687.18811
   6012,   2429.63037,   1685.68811
   6013,   2430.13037,   1687.18811
   6014,   2425.63037,   1685.68811
   6015,   2427.63037,   1685.68811
   6016,   2426.63037,   1687.18811
   6017,   2428.63037,   1687.18811
   6018,   2424.63037,   1685.68811
   6019,   2423.63037,   1687.18811
   6020,   2422.63037,   1685.68811
   6021,   2421.63037,   1687.18811
   6022,   2430.63037,   1687.68811
   6023,   2432.63037,   1687.68811
   6024,   2431.63037,   1688.18811
   6025,   2434.63037,   1687.68811
   6026,   2433.63037,   1688.18811
   6027,   2436.63037,   1687.68811
   6028,   2435.63037,   1688.18811
   6029,   2438.63037,   1687.68811
   6030,   2437.63037,   1688.18811
   6031,   2440.63037,   1687.68811
   6032,   2439.63037,   1688.18811
   6033,   2429.63037,   1687.68811
   6034,   2430.13037,   1688.18811
   6035,   2425.63037,   1687.68811
   6036,   2427.63037,   1687.68811
   6037,   2426.63037,   1688.18811
   6038,   2428.63037,   1688.18811
   6039,   2424.63037,   1687.68811
   6040,   2423.63037,   1688.18811
   6041,   2422.63037,   1687.68811
   6042,   2421.63037,   1688.18811
   6043,   2461.13037,   1698.18811
   6044,   2461.63037,   1699.18811
   6045,   2461.13037,   1700.18811
   6046,   2460.63037,   1699.18811
   6047,   2461.63037,   1701.18811
   6048,   2461.13037,   1702.18811
   6049,   2460.63037,   1701.18811
   6050,   2461.63037,   1703.18811
   6051,   2461.13037,   1704.18811
   6052,   2460.63037,   1703.18811
   6053,   2461.63037,   1705.18811
   6054,   2461.13037,   1706.18811
   6055,   2460.63037,   1705.18811
   6056,   2461.63037,   1707.18811
   6057,   2461.13037,   1708.18811
   6058,   2460.63037,   1707.18811
   6059,   2461.63037,   1709.18811
   6060,   2461.13037,   1710.18811
   6061,   2460.63037,   1709.18811
   6062,   2461.63037,   1711.18811
   6063,   2461.13037,   1712.18811
   6064,   2460.63037,   1711.18811
   6065,   2461.63037,   1713.18811
   6066,   2461.13037,   1714.18811
   6067,   2460.63037,   1713.18811
   6068,   2461.63037,   1715.18811
   6069,   2461.13037,   1716.18811
   6070,   2460.63037,   1715.18811
   6071,   2461.63037,   1717.18811
   6072,   2461.13037,   1718.18811
   6073,   2460.63037,   1717.18811
   6074,   2461.63037,   1719.18811
   6075,   2461.13037,   1720.18811
   6076,   2460.63037,   1719.18811
   6077,   2461.63037,   1721.18811
   6078,   2461.13037,   1722.18811
   6079,   2460.63037,   1721.18811
   6080,   2461.63037,   1723.18811
   6081,   2461.13037,   1724.18811
   6082,   2460.63037,   1723.18811
   6083,   2461.63037,   1725.18811
   6084,   2461.13037,   1726.18811
   6085,   2460.63037,   1725.18811
   6086,   2461.63037,   1727.18811
   6087,   2461.13037,   1728.18811
   6088,   2460.63037,   1727.18811
   6089,   2461.63037,   1729.18811
   6090,   2461.13037,   1730.18811
   6091,   2460.63037,   1729.18811
   6092,   2461.63037,   1731.18811
   6093,   2461.13037,   1732.18811
   6094,   2460.63037,   1731.18811
   6095,   2461.63037,   1733.18811
   6096,   2461.13037,   1734.18811
   6097,   2460.63037,   1733.18811
   6098,   2461.63037,   1735.18811
   6099,   2461.13037,   1736.18811
   6100,   2460.63037,   1735.18811
   6101,   2461.63037,   1737.18811
   6102,   2461.13037,   1738.18811
   6103,   2460.63037,   1737.18811
   6104,   2450.63037,   1687.68811
   6105,   2449.63037,   1688.18811
   6106,   2448.63037,   1687.68811
   6107,   2449.63037,   1687.18811
   6108,   2447.63037,   1688.18811
   6109,   2446.63037,   1687.68811
   6110,   2447.63037,   1687.18811
   6111,   2445.63037,   1688.18811
   6112,   2444.63037,   1687.68811
   6113,   2445.63037,   1687.18811
   6114,   2443.63037,   1688.18811
   6115,   2442.63037,   1687.68811
   6116,   2443.63037,   1687.18811
   6117,   2441.63037,   1688.18811
   6118,   2441.63037,   1687.18811
   6119,   2460.63037,   1697.68811
   6120,   2461.13037,   1697.18811
   6121,   2461.63037,   1697.68811
   6122,   2451.13037,   1687.18811
   6123,   2451.63037,   1687.68811
   6124,   2451.13037,   1688.18811
   6125,   2461.13037,   1694.18811
   6126,   2461.63037,   1694.93811
   6127,   2461.13037,   1695.68811
   6128,   2460.63037,   1694.93811
   6129,   2461.63037,   1696.43811
   6130,   2460.63037,   1696.43811
   6131,   2455.63037,   1687.68811
   6132,   2454.63037,   1688.18811
   6133,   2453.63037,   1687.68811
   6134,   2454.63037,   1687.18811
   6135,   2452.63037,   1688.18811
   6136,   2452.63037,   1687.18811
   6137,   2461.13037,   1693.18811
   6138,   2461.63037,   1693.68811
   6139,   2460.63037,   1693.68811
   6140,   2456.63037,   1687.68811
   6141,   2456.13037,   1688.18811
   6142,   2456.13037,   1687.18811
   6143,   2460.63037,   1692.68811
   6144,   2461.13037,   1692.18811
   6145,   2461.63037,   1692.68811
   6146,   2457.63037,   1687.18811
   6147,   2458.63037,   1687.68811
   6148,   2457.63037,   1688.18811
   6149,   2459.63037,   1687.18811
   6150,   2460.63037,   1687.68811
   6151,   2459.63037,   1688.18811
   6152,   2460.63037,   1691.18811
   6153,   2461.13037,   1690.18811
   6154,   2461.63037,   1691.18811
   6155,   2460.63037,   1689.18811
   6156,   2461.13037,   1688.18811
   6157,   2461.63037,   1689.18811
   6158,   2461.13037,   1687.18811
   6159,   2461.63037,   1687.68811
   6160,   2464.63037,   1687.68811
   6161,   2463.88037,   1688.18811
   6162,   2463.13037,   1687.68811
   6163,   2463.88037,   1687.18811
   6164,   2462.38037,   1688.18811
   6165,   2462.38037,   1687.18811
   6166,   2465.13037,   1687.18811
   6167,   2465.63037,   1687.68811
   6168,   2465.13037,   1688.18811
   6169,   2466.63037,   1687.18811
   6170,   2467.63037,   1687.68811
   6171,   2466.63037,   1688.18811
   6172,   2468.63037,   1687.18811
   6173,   2469.63037,   1687.68811
   6174,   2468.63037,   1688.18811
   6175,   2501.13037,   1698.18811
   6176,   2501.63037,   1699.18811
   6177,   2501.13037,   1700.18811
   6178,   2500.63037,   1699.18811
   6179,   2501.63037,   1701.18811
   6180,   2501.13037,   1702.18811
   6181,   2500.63037,   1701.18811
   6182,   2501.63037,   1703.18811
   6183,   2501.13037,   1704.18811
   6184,   2500.63037,   1703.18811
   6185,   2501.63037,   1705.18811
   6186,   2501.13037,   1706.18811
   6187,   2500.63037,   1705.18811
   6188,   2501.63037,   1707.18811
   6189,   2501.13037,   1708.18811
   6190,   2500.63037,   1707.18811
   6191,   2501.63037,   1709.18811
   6192,   2501.13037,   1710.18811
   6193,   2500.63037,   1709.18811
   6194,   2501.63037,   1711.18811
   6195,   2501.13037,   1712.18811
   6196,   2500.63037,   1711.18811
   6197,   2501.63037,   1713.18811
   6198,   2501.13037,   1714.18811
   6199,   2500.63037,   1713.18811
   6200,   2501.63037,   1715.18811
   6201,   2501.13037,   1716.18811
   6202,   2500.63037,   1715.18811
   6203,   2501.63037,   1717.18811
   6204,   2501.13037,   1718.18811
   6205,   2500.63037,   1717.18811
   6206,   2501.63037,   1719.18811
   6207,   2501.13037,   1720.18811
   6208,   2500.63037,   1719.18811
   6209,   2501.63037,   1721.18811
   6210,   2501.13037,   1722.18811
   6211,   2500.63037,   1721.18811
   6212,   2501.63037,   1723.18811
   6213,   2501.13037,   1724.18811
   6214,   2500.63037,   1723.18811
   6215,   2501.63037,   1725.18811
   6216,   2501.13037,   1726.18811
   6217,   2500.63037,   1725.18811
   6218,   2501.63037,   1727.18811
   6219,   2501.13037,   1728.18811
   6220,   2500.63037,   1727.18811
   6221,   2501.63037,   1729.18811
   6222,   2501.13037,   1730.18811
   6223,   2500.63037,   1729.18811
   6224,   2470.63037,   1687.68811
   6225,   2470.13037,   1688.18811
   6226,   2470.13037,   1687.18811
   6227,   2500.63037,   1697.68811
   6228,   2501.13037,   1697.18811
   6229,   2501.63037,   1697.68811
   6230,   2490.63037,   1687.68811
   6231,   2489.63037,   1688.18811
   6232,   2488.63037,   1687.68811
   6233,   2489.63037,   1687.18811
   6234,   2487.63037,   1688.18811
   6235,   2486.63037,   1687.68811
   6236,   2487.63037,   1687.18811
   6237,   2485.63037,   1688.18811
   6238,   2484.63037,   1687.68811
   6239,   2485.63037,   1687.18811
   6240,   2483.63037,   1688.18811
   6241,   2482.63037,   1687.68811
   6242,   2483.63037,   1687.18811
   6243,   2481.63037,   1688.18811
   6244,   2480.63037,   1687.68811
   6245,   2481.63037,   1687.18811
   6246,   2479.63037,   1688.18811
   6247,   2478.63037,   1687.68811
   6248,   2479.63037,   1687.18811
   6249,   2477.63037,   1688.18811
   6250,   2476.63037,   1687.68811
   6251,   2477.63037,   1687.18811
   6252,   2475.63037,   1688.18811
   6253,   2474.63037,   1687.68811
   6254,   2475.63037,   1687.18811
   6255,   2473.63037,   1688.18811
   6256,   2472.63037,   1687.68811
   6257,   2473.63037,   1687.18811
   6258,   2471.63037,   1688.18811
   6259,   2471.63037,   1687.18811
   6260,   2500.63037,   1696.43811
   6261,   2501.13037,   1695.68811
   6262,   2501.63037,   1696.43811
   6263,   2500.63037,   1694.93811
   6264,   2501.13037,   1694.18811
   6265,   2501.63037,   1694.93811
   6266,   2491.63037,   1687.68811
   6267,   2491.13037,   1688.18811
   6268,   2491.13037,   1687.18811
   6269,   2501.13037,   1693.18811
   6270,   2501.63037,   1693.68811
   6271,   2500.63037,   1693.68811
   6272,   2495.63037,   1687.68811
   6273,   2494.63037,   1688.18811
   6274,   2493.63037,   1687.68811
   6275,   2494.63037,   1687.18811
   6276,   2492.63037,   1688.18811
   6277,   2492.63037,   1687.18811
   6278,   2500.63037,   1692.68811
   6279,   2501.13037,   1692.18811
   6280,   2501.63037,   1692.68811
   6281,   2496.63037,   1687.68811
   6282,   2496.13037,   1688.18811
   6283,   2496.13037,   1687.18811
   6284,   2500.63037,   1691.18811
   6285,   2501.13037,   1690.18811
   6286,   2501.63037,   1691.18811
   6287,   2497.63037,   1687.68811
   6288,   2497.13037,   1688.18811
   6289,   2497.13037,   1687.18811
   6290,   2501.13037,   1688.18811
   6291,   2501.63037,   1689.18811
   6292,   2500.63037,   1689.18811
   6293,   2500.63037,   1687.68811
   6294,   2499.13037,   1688.18811
   6295,   2499.13037,   1687.18811
   6296,   2385.63037,   1683.68811
   6297,   2386.63037,   1683.18811
   6298,   2387.63037,   1683.68811
   6299,   2386.63037,   1684.18811
   6300,   2388.63037,   1683.18811
   6301,   2389.63037,   1683.68811
   6302,   2388.63037,   1684.18811
   6303,   2391.63037,   1678.68811
   6304,   2392.13037,   1678.18811
   6305,   2392.63037,   1678.68811
   6306,   2392.13037,   1679.18811
   6307,   2375.54712,   1683.18811
   6308,   2376.46362,   1683.68811
   6309,   2375.54712,   1684.18811
   6310,   2374.63037,   1683.68811
   6311,   2377.38037,   1683.18811
   6312,   2378.29712,   1683.68811
   6313,   2377.38037,   1684.18811
   6314,   2379.21387,   1683.18811
   6315,   2380.13037,   1683.68811
   6316,   2379.21387,   1684.18811
   6317,   2381.04688,   1683.18811
   6318,   2381.96362,   1683.68811
   6319,   2381.04688,   1684.18811
   6320,   2382.88037,   1683.18811
   6321,   2383.79712,   1683.68811
   6322,   2382.88037,   1684.18811
   6323,   2384.71387,   1683.18811
   6324,   2384.71387,   1684.18811
   6325,   2386.63037,   1679.18811
   6326,   2387.63037,   1680.18811
   6327,   2386.63037,   1681.18811
   6328,   2385.63037,   1680.18811
   6329,   2388.63037,   1679.18811
   6330,   2389.63037,   1680.18811
   6331,   2388.63037,   1681.18811
   6332,   2387.63037,   1682.18811
   6333,   2385.63037,   1682.18811
   6334,   2389.63037,   1682.18811
   6335,   2389.63037,   1678.68811
   6336,   2390.63037,   1678.18811
   6337,   2390.63037,   1679.18811
   6338,   2393.63037,   1678.18811
   6339,   2394.63037,   1678.68811
   6340,   2393.63037,   1679.18811
   6341,   2375.54712,   1679.18811
   6342,   2376.46362,   1680.18811
   6343,   2375.54688,   1681.18811
   6344,   2374.63037,   1680.18811
   6345,   2377.38037,   1679.18811
   6346,   2378.29712,   1680.18811
   6347,   2377.38037,   1681.18811
   6348,   2379.21387,   1679.18811
   6349,   2380.13037,   1680.18811
   6350,   2379.21387,   1681.18811
   6351,   2381.04688,   1679.18811
   6352,   2381.96362,   1680.18811
   6353,   2381.04688,   1681.18811
   6354,   2382.88037,   1679.18811
   6355,   2383.79712,   1680.18811
   6356,   2382.88037,   1681.18811
   6357,   2384.71387,   1679.18811
   6358,   2384.71387,   1681.18811
   6359,   2376.46362,   1682.18811
   6360,   2374.63037,   1682.18811
   6361,   2378.29712,   1682.18811
   6362,   2380.13037,   1682.18811
   6363,   2381.96362,   1682.18811
   6364,   2383.79712,   1682.18811
   6365,   2385.63037,   1678.68811
   6366,   2386.63037,   1678.18811
   6367,   2387.63037,   1678.68811
   6368,   2388.63037,   1678.18811
   6369,   2395.63037,   1678.68811
   6370,   2395.13037,   1679.18811
   6371,   2395.13037,   1678.18811
   6372,   2374.63818,   1678.68811
   6373,   2375.56152,   1678.18811
   6374,   2376.47021,   1678.68811
   6375,   2377.39209,   1678.18811
   6376,   2378.30225,   1678.68811
   6377,   2379.22266,   1678.18811
   6378,   2380.13428,   1678.68811
   6379,   2381.05371,   1678.18811
   6380,   2381.96631,   1678.68811
   6381,   2382.88428,   1678.18811
   6382,   2383.79834,   1678.68811
   6383,   2384.71509,   1678.18811
   6384,   2396.63037,   1678.18811
   6385,   2397.63037,   1678.68811
   6386,   2396.63037,   1679.18811
   6387,   2398.63037,   1678.18811
   6388,   2399.63037,   1678.68811
   6389,   2398.63037,   1679.18811
   6390,   2370.63037,   1678.68811
   6391,   2371.63428,   1678.18811
   6392,   2372.63428,   1678.68811
   6393,   2371.63037,   1679.18811
   6394,   2373.64209,   1678.18811
   6395,   2373.63037,   1679.18811
   6396,   2400.63037,   1678.68811
   6397,   2400.13037,   1679.18811
   6398,   2400.13037,   1678.18811
   6399,   2366.63037,   1678.68811
   6400,   2367.63037,   1678.18811
   6401,   2368.63037,   1678.68811
   6402,   2367.63037,   1679.18811
   6403,   2369.63037,   1678.18811
   6404,   2369.63037,   1679.18811
   6405,   2401.63037,   1678.18811
   6406,   2402.63037,   1678.68811
   6407,   2401.63037,   1679.18811
   6408,   2403.63037,   1678.18811
   6409,   2404.63037,   1678.68811
   6410,   2403.63037,   1679.18811
   6411,   2365.63037,   1678.68811
   6412,   2366.13037,   1678.18811
   6413,   2366.13037,   1679.18811
   6414,   2405.13037,   1678.18811
   6415,   2405.63037,   1678.68811
   6416,   2405.13037,   1679.18811
   6417,   2364.63037,   1679.18811
   6418,   2363.63037,   1678.68811
   6419,   2364.63037,   1678.18811
   6420,   2362.63037,   1679.18811
   6421,   2361.63037,   1678.68811
   6422,   2362.63037,   1678.18811
   6423,   2406.63037,   1678.18811
   6424,   2407.63037,   1678.68811
   6425,   2406.63037,   1679.18811
   6426,   2408.63037,   1678.18811
   6427,   2409.63037,   1678.68811
   6428,   2408.63037,   1679.18811
   6429,   2361.13037,   1679.18811
   6430,   2360.63037,   1678.68811
   6431,   2361.13037,   1678.18811
   6432,   2410.13037,   1678.18811
   6433,   2410.63037,   1678.68811
   6434,   2410.13037,   1679.18811
   6435,   2361.13037,   1683.18811
   6436,   2360.63037,   1682.18811
   6437,   2361.13037,   1681.18811
   6438,   2361.63037,   1682.18811
   6439,   2360.63037,   1680.18811
   6440,   2361.63037,   1680.18811
   6441,   2411.63037,   1678.18811
   6442,   2412.63037,   1678.68811
   6443,   2411.63037,   1679.18811
   6444,   2413.63037,   1678.18811
   6445,   2414.63037,   1678.68811
   6446,   2413.63037,   1679.18811
   6447,   2361.63037,   1683.68811
   6448,   2361.13037,   1684.18811
   6449,   2360.63037,   1683.68811
   6450,   2415.13037,   1678.18811
   6451,   2415.63037,   1678.68811
   6452,   2415.13037,   1679.18811
   6453,   2361.63037,   1685.68811
   6454,   2361.13037,   1687.18811
   6455,   2360.63037,   1685.68811
   6456,   2416.63037,   1678.18811
   6457,   2417.63037,   1678.68811
   6458,   2416.63037,   1679.18811
   6459,   2418.63037,   1678.18811
   6460,   2419.63037,   1678.68811
   6461,   2418.63037,   1679.18811
   6462,   2361.13037,   1688.18811
   6463,   2360.63037,   1687.68811
   6464,   2361.63037,   1687.68811
   6465,   2420.13037,   1678.18811
   6466,   2420.63037,   1678.68811
   6467,   2420.13037,   1679.18811
   6468,   2361.63037,   1689.18811
   6469,   2361.13037,   1690.18811
   6470,   2360.63037,   1689.18811
   6471,   2421.63037,   1678.18811
   6472,   2422.63037,   1678.68811
   6473,   2421.63037,   1679.18811
   6474,   2423.63037,   1678.18811
   6475,   2424.63037,   1678.68811
   6476,   2423.63037,   1679.18811
   6477,   2361.63037,   1691.18811
   6478,   2361.13037,   1692.18811
   6479,   2360.63037,   1691.18811
   6480,   2425.13037,   1678.18811
   6481,   2425.63037,   1678.68811
   6482,   2425.13037,   1679.18811
   6483,   2361.63037,   1692.68811
   6484,   2361.13037,   1693.18811
   6485,   2360.63037,   1692.68811
   6486,   2426.63037,   1678.18811
   6487,   2427.63037,   1678.68811
   6488,   2426.63037,   1679.18811
   6489,   2428.63037,   1678.18811
   6490,   2429.63037,   1678.68811
   6491,   2428.63037,   1679.18811
   6492,   2361.13037,   1694.18811
   6493,   2360.63037,   1693.68811
   6494,   2361.63037,   1693.68811
   6495,   2430.13037,   1678.18811
   6496,   2430.63037,   1678.68811
   6497,   2430.13037,   1679.18811
   6498,   2361.63037,   1694.93811
   6499,   2361.13037,   1695.68811
   6500,   2360.63037,   1694.93811
   6501,   2361.63037,   1696.43811
   6502,   2361.13037,   1697.18811
   6503,   2360.63037,   1696.43811
   6504,   2431.63037,   1678.18811
   6505,   2432.63037,   1678.68811
   6506,   2431.63037,   1679.18811
   6507,   2433.63037,   1678.18811
   6508,   2434.63037,   1678.68811
   6509,   2433.63037,   1679.18811
   6510,   2435.63037,   1678.18811
   6511,   2436.63037,   1678.68811
   6512,   2435.63037,   1679.18811
   6513,   2437.63037,   1678.18811
   6514,   2438.63037,   1678.68811
   6515,   2437.63037,   1679.18811
   6516,   2439.63037,   1678.18811
   6517,   2440.63037,   1678.68811
   6518,   2439.63037,   1679.18811
   6519,   2361.13037,   1698.18811
   6520,   2360.63037,   1697.68811
   6521,   2361.63037,   1697.68811
   6522,   2450.63037,   1678.68811
   6523,   2449.63037,   1679.18811
   6524,   2448.63037,   1678.68811
   6525,   2449.63037,   1678.18811
   6526,   2447.63037,   1679.18811
   6527,   2446.63037,   1678.68811
   6528,   2447.63037,   1678.18811
   6529,   2445.63037,   1679.18811
   6530,   2444.63037,   1678.68811
   6531,   2445.63037,   1678.18811
   6532,   2443.63037,   1679.18811
   6533,   2442.63037,   1678.68811
   6534,   2443.63037,   1678.18811
   6535,   2441.63037,   1679.18811
   6536,   2441.63037,   1678.18811
   6537,   2361.13037,   1743.18811
   6538,   2360.63037,   1742.20984
   6539,   2361.13037,   1741.23157
   6540,   2361.63037,   1742.20984
   6541,   2360.63037,    1740.2533
   6542,   2361.13037,   1739.27502
   6543,   2361.63037,    1740.2533
   6544,   2360.63037,   1738.29675
   6545,   2361.13037,   1737.31848
   6546,   2361.63037,   1738.29675
   6547,   2360.63037,   1736.34033
   6548,   2361.13037,   1735.36206
   6549,   2361.63037,   1736.34033
   6550,   2360.63037,   1734.38379
   6551,   2361.13037,   1733.40552
   6552,   2361.63037,   1734.38379
   6553,   2360.63037,   1732.42725
   6554,   2361.13037,   1731.44897
   6555,   2361.63037,   1732.42725
   6556,   2360.63037,    1730.4707
   6557,   2361.13037,   1729.49243
   6558,   2361.63037,    1730.4707
   6559,   2360.63037,   1728.51416
   6560,   2361.13037,   1727.53589
   6561,   2361.63037,   1728.51416
   6562,   2360.63037,   1726.55762
   6563,   2361.13037,   1725.57947
   6564,   2361.63037,   1726.55762
   6565,   2360.63037,    1724.6012
   6566,   2361.13037,   1723.62292
   6567,   2361.63037,    1724.6012
   6568,   2360.63037,   1722.64465
   6569,   2361.13037,   1721.66638
   6570,   2361.63037,   1722.64465
   6571,   2360.63037,   1720.68811
   6572,   2361.13037,   1719.70984
   6573,   2361.63037,   1720.68811
   6574,   2360.63037,   1718.73157
   6575,   2361.13037,    1717.7533
   6576,   2361.63037,   1718.73157
   6577,   2360.63037,   1716.77502
   6578,   2361.13037,   1715.79675
   6579,   2361.63037,   1716.77502
   6580,   2360.63037,    1714.8186
   6581,   2361.13037,   1713.84033
   6582,   2361.63037,    1714.8186
   6583,   2360.63037,   1712.86206
   6584,   2361.13037,   1711.88379
   6585,   2361.63037,   1712.86206
   6586,   2360.63037,   1710.90552
   6587,   2361.13037,   1709.92725
   6588,   2361.63037,   1710.90552
   6589,   2360.63037,   1708.94897
   6590,   2361.13037,    1707.9707
   6591,   2361.63037,   1708.94897
   6592,   2360.63037,   1706.99243
   6593,   2361.13037,   1706.01416
   6594,   2361.63037,   1706.99243
   6595,   2360.63037,   1705.03589
   6596,   2361.13037,   1704.05762
   6597,   2361.63037,   1705.03589
   6598,   2360.63037,   1703.07935
   6599,   2361.13037,    1702.1012
   6600,   2361.63037,   1703.07935
   6601,   2360.63037,   1701.12292
   6602,   2361.13037,   1700.14465
   6603,   2361.63037,   1701.12292
   6604,   2360.63037,   1699.16638
   6605,   2361.63037,   1699.16638
   6606,   2451.13037,   1678.18811
   6607,   2451.63037,   1678.68811
   6608,   2451.13037,   1679.18811
   6609,   2361.13037,   1747.18811
   6610,   2360.63037,   1746.18811
   6611,   2361.13037,   1745.18811
   6612,   2361.63037,   1746.18811
   6613,   2360.63037,   1744.18811
   6614,   2361.63037,   1744.18811
   6615,   2455.63037,   1678.68811
   6616,   2454.63037,   1679.18811
   6617,   2453.63037,   1678.68811
   6618,   2454.63037,   1678.18811
   6619,   2452.63037,   1679.18811
   6620,   2452.63037,   1678.18811
   6621,   2361.13037,   1748.18811
   6622,   2360.63037,   1747.68811
   6623,   2361.63037,   1747.68811
   6624,   2456.63037,   1678.68811
   6625,   2456.13037,   1679.18811
   6626,   2456.13037,   1678.18811
   6627,   2361.13037,   1752.18811
   6628,   2360.63037,   1751.18811
   6629,   2361.13037,   1750.18811
   6630,   2361.63037,   1751.18811
   6631,   2360.63037,   1749.18811
   6632,   2361.63037,   1749.18811
   6633,   2457.63037,   1678.18811
   6634,   2458.63037,   1678.68811
   6635,   2457.63037,   1679.18811
   6636,   2459.63037,   1678.18811
   6637,   2460.63037,   1678.68811
   6638,   2459.63037,   1679.18811
   6639,   2361.13037,   1753.18811
   6640,   2360.63037,   1752.68811
   6641,   2361.63037,   1752.68811
   6642,   2461.13037,   1678.18811
   6643,   2461.63037,   1678.68811
   6644,   2461.13037,   1679.18811
   6645,   2361.13037,   1757.18811
   6646,   2360.63037,   1756.18811
   6647,   2361.13037,   1755.18811
   6648,   2361.63037,   1756.18811
   6649,   2360.63037,   1754.18811
   6650,   2361.63037,   1754.18811
   6651,   2464.63037,   1678.68811
   6652,   2463.88037,   1679.18811
   6653,   2463.13037,   1678.68811
   6654,   2463.88037,   1678.18811
   6655,   2462.38037,   1679.18811
   6656,   2462.38037,   1678.18811
   6657,   2361.63037,   1757.68811
   6658,   2361.13037,   1758.18811
   6659,   2360.63037,   1757.68811
   6660,   2465.13037,   1678.18811
   6661,   2465.63037,   1678.68811
   6662,   2465.13037,   1679.18811
   6663,   2361.13037,   1762.18811
   6664,   2360.63037,   1761.18811
   6665,   2361.13037,   1760.18811
   6666,   2361.63037,   1761.18811
   6667,   2360.63037,   1759.18811
   6668,   2361.63037,   1759.18811
   6669,   2466.63037,   1678.18811
   6670,   2467.63037,   1678.68811
   6671,   2466.63037,   1679.18811
   6672,   2468.63037,   1678.18811
   6673,   2469.63037,   1678.68811
   6674,   2468.63037,   1679.18811
   6675,   2361.13037,   1763.18811
   6676,   2360.63037,   1762.68811
   6677,   2361.63037,   1762.68811
   6678,   2470.63037,   1678.68811
   6679,   2470.13037,   1679.18811
   6680,   2470.13037,   1678.18811
   6681,   2361.13037,   1767.18811
   6682,   2360.63037,   1766.18811
   6683,   2361.13037,   1765.18811
   6684,   2361.63037,   1766.18811
   6685,   2360.63037,   1764.18811
   6686,   2361.63037,   1764.18811
   6687,   2490.63037,   1678.68811
   6688,   2489.63037,   1679.18811
   6689,   2488.63037,   1678.68811
   6690,   2489.63037,   1678.18811
   6691,   2487.63037,   1679.18811
   6692,   2486.63037,   1678.68811
   6693,   2487.63037,   1678.18811
   6694,   2485.63037,   1679.18811
   6695,   2484.63037,   1678.68811
   6696,   2485.63037,   1678.18811
   6697,   2483.63037,   1679.18811
   6698,   2482.63037,   1678.68811
   6699,   2483.63037,   1678.18811
   6700,   2481.63037,   1679.18811
   6701,   2480.63037,   1678.68811
   6702,   2481.63037,   1678.18811
   6703,   2479.63037,   1679.18811
   6704,   2478.63037,   1678.68811
   6705,   2479.63037,   1678.18811
   6706,   2477.63037,   1679.18811
   6707,   2476.63037,   1678.68811
   6708,   2477.63037,   1678.18811
   6709,   2475.63037,   1679.18811
   6710,   2474.63037,   1678.68811
   6711,   2475.63037,   1678.18811
   6712,   2473.63037,   1679.18811
   6713,   2472.63037,   1678.68811
   6714,   2473.63037,   1678.18811
   6715,   2471.63037,   1679.18811
   6716,   2471.63037,   1678.18811
   6717,   2361.13037,   1768.18811
   6718,   2360.63037,   1767.68811
   6719,   2361.63037,   1767.68811
   6720,   2491.63037,   1678.68811
   6721,   2491.13037,   1679.18811
   6722,   2491.13037,   1678.18811
   6723,   2361.13037,   1772.18811
   6724,   2360.63037,   1771.18811
   6725,   2361.13037,   1770.18811
   6726,   2361.63037,   1771.18811
   6727,   2360.63037,   1769.18811
   6728,   2361.63037,   1769.18811
   6729,   2495.63037,   1678.68811
   6730,   2494.63037,   1679.18811
   6731,   2493.63037,   1678.68811
   6732,   2494.63037,   1678.18811
   6733,   2492.63037,   1679.18811
   6734,   2492.63037,   1678.18811
   6735,   2361.13037,   1773.18811
   6736,   2360.63037,   1772.68811
   6737,   2361.63037,   1772.68811
   6738,   2496.63037,   1678.68811
   6739,   2496.13037,   1679.18811
   6740,   2496.13037,   1678.18811
   6741,   2361.13037,   1777.18811
   6742,   2360.63037,   1776.18811
   6743,   2361.13037,   1775.18811
   6744,   2361.63037,   1776.18811
   6745,   2360.63037,   1774.18811
   6746,   2361.63037,   1774.18811
   6747,   2497.63037,   1678.68811
   6748,   2497.13037,   1679.18811
   6749,   2497.13037,   1678.18811
   6750,   2361.63037,   1777.68811
   6751,   2361.13037,   1778.18811
   6752,   2360.63037,   1777.68811
   6753,   2500.63037,   1678.68811
   6754,   2499.13037,   1679.18811
   6755,   2499.13037,   1678.18811
   6756,   2362.63037,   1777.18811
   6757,   2363.63037,   1777.68811
   6758,   2362.63037,   1778.18811
   6759,   2364.63037,   1777.18811
   6760,   2365.63037,   1777.68811
   6761,   2364.63037,   1778.18811
   6762,   2501.13037,   1678.18811
   6763,   2501.63037,   1678.68811
   6764,   2501.13037,   1679.18811
   6765,   2366.63037,   1777.68811
   6766,   2366.13037,   1778.18811
   6767,   2366.13037,   1777.18811
   6768,   2502.13037,   1678.18811
   6769,   2502.63037,   1678.68811
   6770,   2502.13037,   1679.18811
   6771,   2367.63037,   1777.18811
   6772,   2368.63037,   1777.68811
   6773,   2367.63037,   1778.18811
   6774,   2369.63037,   1777.18811
   6775,   2370.63037,   1777.68811
   6776,   2369.63037,   1778.18811
   6777,   2504.63037,   1678.68811
   6778,   2503.63037,   1679.18811
   6779,   2503.63037,   1678.18811
   6780,   2371.63037,   1777.18811
   6781,   2372.63037,   1777.68811
   6782,   2371.63037,   1778.18811
   6783,   2373.63037,   1777.18811
   6784,   2374.63037,   1777.68811
   6785,   2373.63037,   1778.18811
   6786,   2505.13037,   1678.18811
   6787,   2505.63037,   1678.68811
   6788,   2505.13037,   1679.18811
   6789,   2375.54712,   1777.18811
   6790,   2376.46362,   1777.68811
   6791,   2375.54712,   1778.18811
   6792,   2377.38037,   1777.18811
   6793,   2378.29712,   1777.68811
   6794,   2377.38037,   1778.18811
   6795,   2379.21387,   1777.18811
   6796,   2380.13037,   1777.68811
   6797,   2379.21387,   1778.18811
   6798,   2381.04688,   1777.18811
   6799,   2381.96362,   1777.68811
   6800,   2381.04688,   1778.18811
   6801,   2382.88037,   1777.18811
   6802,   2383.79712,   1777.68811
   6803,   2382.88037,   1778.18811
   6804,   2384.71387,   1777.18811
   6805,   2385.63037,   1777.68811
   6806,   2384.71387,   1778.18811
   6807,   2506.63037,   1678.18811
   6808,   2507.63037,   1678.68811
   6809,   2506.63037,   1679.18811
   6810,   2508.63037,   1678.18811
   6811,   2509.63037,   1678.68811
   6812,   2508.63037,   1679.18811
   6813,   2386.63037,   1777.18811
   6814,   2387.63037,   1777.68811
   6815,   2386.63037,   1778.18811
   6816,   2388.63037,   1777.18811
   6817,   2389.63037,   1777.68811
   6818,   2388.63037,   1778.18811
   6819,   2510.13037,   1678.18811
   6820,   2510.63037,   1678.68811
   6821,   2510.13037,   1679.18811
   6822,   2390.63037,   1777.18811
   6823,   2391.63037,   1777.68811
   6824,   2390.63037,   1778.18811
   6825,   2510.13037,   1683.18811
   6826,   2509.63037,   1682.18811
   6827,   2510.13037,   1681.18811
   6828,   2510.63037,   1682.18811
   6829,   2509.63037,   1680.18811
   6830,   2510.63037,   1680.18811
   6831,   2392.13037,   1777.18811
   6832,   2392.63037,   1777.68811
   6833,   2392.13037,   1778.18811
   6834,   2510.13037,   1684.18811
   6835,   2509.63037,   1683.68811
   6836,   2510.63037,   1683.68811
   6837,   2393.63037,   1777.18811
   6838,   2394.63037,   1777.68811
   6839,   2393.63037,   1778.18811
   6840,   2510.63037,   1685.68811
   6841,   2510.13037,   1687.18811
   6842,   2509.63037,   1685.68811
   6843,   2395.63037,   1777.68811
   6844,   2395.13037,   1778.18811
   6845,   2395.13037,   1777.18811
   6846,   2510.63037,   1687.68811
   6847,   2510.13037,   1688.18811
   6848,   2509.63037,   1687.68811
   6849,   2399.63037,   1777.68811
   6850,   2398.63037,   1778.18811
   6851,   2397.63037,   1777.68811
   6852,   2398.63037,   1777.18811
   6853,   2396.63037,   1778.18811
   6854,   2396.63037,   1777.18811
   6855,   2510.63037,   1689.18811
   6856,   2510.13037,   1690.18811
   6857,   2509.63037,   1689.18811
   6858,   2400.63037,   1777.68811
   6859,   2400.13037,   1778.18811
   6860,   2400.13037,   1777.18811
   6861,   2510.13037,   1692.18811
   6862,   2509.63037,   1691.18811
   6863,   2510.63037,   1691.18811
   6864,   2404.63037,   1777.68811
   6865,   2403.63037,   1778.18811
   6866,   2402.63037,   1777.68811
   6867,   2403.63037,   1777.18811
   6868,   2401.63037,   1778.18811
   6869,   2401.63037,   1777.18811
   6870,   2510.63037,   1692.68811
   6871,   2510.13037,   1693.18811
   6872,   2509.63037,   1692.68811
   6873,   2405.63037,   1777.68811
   6874,   2405.13037,   1778.18811
   6875,   2405.13037,   1777.18811
   6876,   2510.63037,   1693.68811
   6877,   2510.13037,   1694.18811
   6878,   2509.63037,   1693.68811
   6879,   2409.63037,   1777.68811
   6880,   2408.63037,   1778.18811
   6881,   2407.63037,   1777.68811
   6882,   2408.63037,   1777.18811
   6883,   2406.63037,   1778.18811
   6884,   2406.63037,   1777.18811
   6885,   2510.13037,   1697.18811
   6886,   2509.63037,   1696.43811
   6887,   2510.13037,   1695.68811
   6888,   2510.63037,   1696.43811
   6889,   2509.63037,   1694.93811
   6890,   2510.63037,   1694.93811
   6891,   2410.63037,   1777.68811
   6892,   2410.13037,   1778.18811
   6893,   2410.13037,   1777.18811
   6894,   2510.13037,   1698.18811
   6895,   2509.63037,   1697.68811
   6896,   2510.63037,   1697.68811
   6897,   2414.63037,   1777.68811
   6898,   2413.63037,   1778.18811
   6899,   2412.63037,   1777.68811
   6900,   2413.63037,   1777.18811
   6901,   2411.63037,   1778.18811
   6902,   2411.63037,   1777.18811
   6903,   2510.13037,   1730.18811
   6904,   2509.63037,   1729.18811
   6905,   2510.13037,   1728.18811
   6906,   2510.63037,   1729.18811
   6907,   2509.63037,   1727.18811
   6908,   2510.13037,   1726.18811
   6909,   2510.63037,   1727.18811
   6910,   2509.63037,   1725.18811
   6911,   2510.13037,   1724.18811
   6912,   2510.63037,   1725.18811
   6913,   2509.63037,   1723.18811
   6914,   2510.13037,   1722.18811
   6915,   2510.63037,   1723.18811
   6916,   2509.63037,   1721.18811
   6917,   2510.13037,   1720.18811
   6918,   2510.63037,   1721.18811
   6919,   2509.63037,   1719.18811
   6920,   2510.13037,   1718.18811
   6921,   2510.63037,   1719.18811
   6922,   2509.63037,   1717.18811
   6923,   2510.13037,   1716.18811
   6924,   2510.63037,   1717.18811
   6925,   2509.63037,   1715.18811
   6926,   2510.13037,   1714.18811
   6927,   2510.63037,   1715.18811
   6928,   2509.63037,   1713.18811
   6929,   2510.13037,   1712.18811
   6930,   2510.63037,   1713.18811
   6931,   2509.63037,   1711.18811
   6932,   2510.13037,   1710.18811
   6933,   2510.63037,   1711.18811
   6934,   2509.63037,   1709.18811
   6935,   2510.13037,   1708.18811
   6936,   2510.63037,   1709.18811
   6937,   2509.63037,   1707.18811
   6938,   2510.13037,   1706.18811
   6939,   2510.63037,   1707.18811
   6940,   2509.63037,   1705.18811
   6941,   2510.13037,   1704.18811
   6942,   2510.63037,   1705.18811
   6943,   2509.63037,   1703.18811
   6944,   2510.13037,   1702.18811
   6945,   2510.63037,   1703.18811
   6946,   2509.63037,   1701.18811
   6947,   2510.13037,   1700.18811
   6948,   2510.63037,   1701.18811
   6949,   2509.63037,   1699.18811
   6950,   2510.63037,   1699.18811
   6951,   2415.63037,   1777.68811
   6952,   2415.13037,   1778.18811
   6953,   2415.13037,   1777.18811
   6954,   2510.63037,   1731.18811
   6955,   2510.13037,   1732.18811
   6956,   2509.63037,   1731.18811
   6957,   2510.63037,   1733.18811
   6958,   2510.13037,   1734.18811
   6959,   2509.63037,   1733.18811
   6960,   2510.63037,   1735.18811
   6961,   2510.13037,   1736.18811
   6962,   2509.63037,   1735.18811
   6963,   2510.63037,   1737.18811
   6964,   2510.13037,   1738.18811
   6965,   2509.63037,   1737.18811
   6966,   2510.63037,   1739.18811
   6967,   2510.13037,   1740.18811
   6968,   2509.63037,   1739.18811
   6969,   2419.63037,   1777.68811
   6970,   2418.63037,   1778.18811
   6971,   2417.63037,   1777.68811
   6972,   2418.63037,   1777.18811
   6973,   2416.63037,   1778.18811
   6974,   2416.63037,   1777.18811
   6975,   2510.63037,   1741.18811
   6976,   2510.13037,   1742.18811
   6977,   2509.63037,   1741.18811
   6978,   2510.63037,   1743.18811
   6979,   2510.13037,   1744.18811
   6980,   2509.63037,   1743.18811
   6981,   2510.63037,   1745.18811
   6982,   2510.13037,   1746.18811
   6983,   2509.63037,   1745.18811
   6984,   2510.63037,   1747.18811
   6985,   2510.13037,   1748.18811
   6986,   2509.63037,   1747.18811
   6987,   2510.63037,   1749.18811
   6988,   2510.13037,   1750.18811
   6989,   2509.63037,   1749.18811
   6990,   2510.63037,   1751.18811
   6991,   2510.13037,   1752.18811
   6992,   2509.63037,   1751.18811
   6993,   2510.63037,   1753.18811
   6994,   2510.13037,   1754.18811
   6995,   2509.63037,   1753.18811
   6996,   2510.63037,   1755.18811
   6997,   2510.13037,   1756.18811
   6998,   2509.63037,   1755.18811
   6999,   2510.63037,   1757.18811
   7000,   2510.13037,   1758.18811
   7001,   2509.63037,   1757.18811
   7002,   2510.63037,   1759.18811
   7003,   2510.13037,   1760.18811
   7004,   2509.63037,   1759.18811
   7005,   2510.63037,   1761.18811
   7006,   2510.13037,   1762.18811
   7007,   2509.63037,   1761.18811
   7008,   2510.63037,   1763.18811
   7009,   2510.13037,   1764.18811
   7010,   2509.63037,   1763.18811
   7011,   2510.63037,   1765.18811
   7012,   2510.13037,   1766.18811
   7013,   2509.63037,   1765.18811
   7014,   2510.63037,   1767.18811
   7015,   2510.13037,   1768.18811
   7016,   2509.63037,   1767.18811
   7017,   2510.63037,   1769.18811
   7018,   2510.13037,   1770.18811
   7019,   2509.63037,   1769.18811
   7020,   2510.63037,   1771.18811
   7021,   2510.13037,   1772.18811
   7022,   2509.63037,   1771.18811
   7023,   2510.63037,   1773.18811
   7024,   2510.13037,   1774.18811
   7025,   2509.63037,   1773.18811
   7026,   2510.63037,   1775.18811
   7027,   2510.13037,   1776.18811
   7028,   2509.63037,   1775.18811
   7029,   2510.63037,   1777.18811
   7030,   2510.13037,   1778.18811
   7031,   2509.63037,   1777.18811
   7032,   2510.63037,   1779.18811
   7033,   2510.13037,   1780.18811
   7034,   2509.63037,   1779.18811
   7035,   2510.63037,   1781.18811
   7036,   2510.13037,   1782.18811
   7037,   2509.63037,   1781.18811
   7038,   2510.63037,   1783.18811
   7039,   2510.13037,   1784.18811
   7040,   2509.63037,   1783.18811
   7041,   2510.63037,   1785.18811
   7042,   2510.13037,   1786.18811
   7043,   2509.63037,   1785.18811
   7044,   2510.63037,   1787.18811
   7045,   2510.13037,   1788.18811
   7046,   2509.63037,   1787.18811
   7047,   2420.63037,   1777.68811
   7048,   2420.13037,   1778.18811
   7049,   2420.13037,   1777.18811
   7050,   2510.13037,   1792.18811
   7051,   2509.63037,   1791.18811
   7052,   2510.13037,   1790.18811
   7053,   2510.63037,   1791.18811
   7054,   2509.63037,   1789.18811
   7055,   2510.63037,   1789.18811
   7056,   2424.63037,   1777.68811
   7057,   2423.63037,   1778.18811
   7058,   2422.63037,   1777.68811
   7059,   2423.63037,   1777.18811
   7060,   2421.63037,   1778.18811
   7061,   2421.63037,   1777.18811
   7062,   2510.13037,   1793.18811
   7063,   2509.63037,   1792.68811
   7064,   2510.63037,   1792.68811
   7065,   2425.63037,   1777.68811
   7066,   2425.13037,   1778.18811
   7067,   2425.13037,   1777.18811
   7068,   2510.13037,   1797.18811
   7069,   2509.63037,   1796.18811
   7070,   2510.13037,   1795.18811
   7071,   2510.63037,   1796.18811
   7072,   2509.63037,   1794.18811
   7073,   2510.63037,   1794.18811
   7074,   2429.63037,   1777.68811
   7075,   2428.63037,   1778.18811
   7076,   2427.63037,   1777.68811
   7077,   2428.63037,   1777.18811
   7078,   2426.63037,   1778.18811
   7079,   2426.63037,   1777.18811
   7080,   2509.63037,   1797.68811
   7081,   2510.63037,   1797.68811
   7082,   2510.13037,   1798.18811
   7083,   2430.13037,   1777.18811
   7084,   2430.63037,   1777.68811
   7085,   2430.13037,   1778.18811
   7086,   2508.63037,   1798.18811
   7087,   2507.63037,   1797.68811
   7088,   2508.63037,   1797.18811
   7089,   2506.63037,   1798.18811
   7090,   2505.63037,   1797.68811
   7091,   2506.63037,   1797.18811
   7092,   2430.13037,   1773.18811
   7093,   2430.63037,   1774.18811
   7094,   2430.13037,   1775.18811
   7095,   2429.63037,   1774.18811
   7096,   2430.63037,   1776.18811
   7097,   2429.63037,   1776.18811
   7098,   2505.13037,   1798.18811
   7099,   2504.63037,   1797.68811
   7100,   2505.13037,   1797.18811
   7101,   2430.13037,   1772.18811
   7102,   2430.63037,   1772.68811
   7103,   2429.63037,   1772.68811
   7104,   2503.63037,   1798.18811
   7105,   2502.63037,   1797.68811
   7106,   2503.63037,   1797.18811
   7107,   2430.13037,   1768.18811
   7108,   2430.63037,   1769.18811
   7109,   2430.13037,   1770.18811
   7110,   2429.63037,   1769.18811
   7111,   2430.63037,   1771.18811
   7112,   2429.63037,   1771.18811
   7113,   2502.13037,   1798.18811
   7114,   2501.63037,   1797.68811
   7115,   2502.13037,   1797.18811
   7116,   2430.13037,   1767.18811
   7117,   2430.63037,   1767.68811
   7118,   2429.63037,   1767.68811
   7119,   2500.63037,   1797.68811
   7120,   2501.13037,   1797.18811
   7121,   2501.13037,   1798.18811
   7122,   2430.13037,   1763.18811
   7123,   2430.63037,   1764.18811
   7124,   2430.13037,   1765.18811
   7125,   2429.63037,   1764.18811
   7126,   2430.63037,   1766.18811
   7127,   2429.63037,   1766.18811
   7128,   2499.13037,   1798.18811
   7129,   2497.63037,   1797.68811
   7130,   2499.13037,   1797.18811
   7131,   2430.13037,   1762.18811
   7132,   2430.63037,   1762.68811
   7133,   2429.63037,   1762.68811
   7134,   2497.13037,   1798.18811
   7135,   2496.63037,   1797.68811
   7136,   2497.13037,   1797.18811
   7137,   2430.13037,   1758.18811
   7138,   2430.63037,   1759.18811
   7139,   2430.13037,   1760.18811
   7140,   2429.63037,   1759.18811
   7141,   2430.63037,   1761.18811
   7142,   2429.63037,   1761.18811
   7143,   2496.13037,   1798.18811
   7144,   2495.63037,   1797.68811
   7145,   2496.13037,   1797.18811
   7146,   2430.13037,   1757.18811
   7147,   2430.63037,   1757.68811
   7148,   2429.63037,   1757.68811
   7149,   2494.63037,   1798.18811
   7150,   2493.63037,   1797.68811
   7151,   2494.63037,   1797.18811
   7152,   2492.63037,   1798.18811
   7153,   2491.63037,   1797.68811
   7154,   2492.63037,   1797.18811
   7155,   2430.13037,   1753.18811
   7156,   2430.63037,   1754.18811
   7157,   2430.13037,   1755.18811
   7158,   2429.63037,   1754.18811
   7159,   2430.63037,   1756.18811
   7160,   2429.63037,   1756.18811
   7161,   2491.13037,   1798.18811
   7162,   2490.63037,   1797.68811
   7163,   2491.13037,   1797.18811
   7164,   2430.13037,   1752.18811
   7165,   2430.63037,   1752.68811
   7166,   2429.63037,   1752.68811
   7167,   2491.13037,   1793.18811
   7168,   2491.63037,   1794.18811
   7169,   2491.13037,   1795.18811
   7170,   2490.63037,   1794.18811
   7171,   2491.63037,   1796.18811
   7172,   2490.63037,   1796.18811
   7173,   2430.13037,   1748.18811
   7174,   2430.63037,   1749.18811
   7175,   2430.13037,   1750.18811
   7176,   2429.63037,   1749.18811
   7177,   2430.63037,   1751.18811
   7178,   2429.63037,   1751.18811
   7179,   2491.13037,   1792.18811
   7180,   2491.63037,   1792.68811
   7181,   2490.63037,   1792.68811
   7182,   2430.13037,   1747.18811
   7183,   2430.63037,   1747.68811
   7184,   2429.63037,   1747.68811
   7185,   2491.13037,   1788.18811
   7186,   2491.63037,   1789.18811
   7187,   2491.13037,   1790.18811
   7188,   2490.63037,   1789.18811
   7189,   2491.63037,   1791.18811
   7190,   2490.63037,   1791.18811
   7191,   2430.13037,   1743.18811
   7192,   2430.63037,   1744.18811
   7193,   2430.13037,   1745.18811
   7194,   2429.63037,   1744.18811
   7195,   2430.63037,   1746.18811
   7196,   2429.63037,   1746.18811
   7197,   2490.63037,   1787.18811
   7198,   2491.13037,   1786.18811
   7199,   2491.63037,   1787.18811
   7200,   2490.63037,   1785.18811
   7201,   2491.13037,   1784.18811
   7202,   2491.63037,   1785.18811
   7203,   2490.63037,   1783.18811
   7204,   2491.13037,   1782.18811
   7205,   2491.63037,   1783.18811
   7206,   2490.63037,   1781.18811
   7207,   2491.13037,   1780.18811
   7208,   2491.63037,   1781.18811
   7209,   2490.63037,   1779.18811
   7210,   2491.13037,   1778.18811
   7211,   2491.63037,   1779.18811
   7212,   2490.63037,   1777.18811
   7213,   2491.13037,   1776.18811
   7214,   2491.63037,   1777.18811
   7215,   2490.63037,   1775.18811
   7216,   2491.13037,   1774.18811
   7217,   2491.63037,   1775.18811
   7218,   2490.63037,   1773.18811
   7219,   2491.13037,   1772.18811
   7220,   2491.63037,   1773.18811
   7221,   2490.63037,   1771.18811
   7222,   2491.13037,   1770.18811
   7223,   2491.63037,   1771.18811
   7224,   2490.63037,   1769.18811
   7225,   2491.13037,   1768.18811
   7226,   2491.63037,   1769.18811
   7227,   2490.63037,   1767.18811
   7228,   2491.13037,   1766.18811
   7229,   2491.63037,   1767.18811
   7230,   2490.63037,   1765.18811
   7231,   2491.13037,   1764.18811
   7232,   2491.63037,   1765.18811
   7233,   2490.63037,   1763.18811
   7234,   2491.13037,   1762.18811
   7235,   2491.63037,   1763.18811
   7236,   2490.63037,   1761.18811
   7237,   2491.13037,   1760.18811
   7238,   2491.63037,   1761.18811
   7239,   2490.63037,   1759.18811
   7240,   2491.13037,   1758.18811
   7241,   2491.63037,   1759.18811
   7242,   2490.63037,   1757.18811
   7243,   2491.13037,   1756.18811
   7244,   2491.63037,   1757.18811
   7245,   2490.63037,   1755.18811
   7246,   2491.13037,   1754.18811
   7247,   2491.63037,   1755.18811
   7248,   2490.63037,   1753.18811
   7249,   2491.13037,   1752.18811
   7250,   2491.63037,   1753.18811
   7251,   2490.63037,   1751.18811
   7252,   2491.13037,   1750.18811
   7253,   2491.63037,   1751.18811
   7254,   2490.63037,   1749.18811
   7255,   2491.13037,   1748.18811
   7256,   2491.63037,   1749.18811
   7257,   2490.63037,   1747.18811
   7258,   2491.13037,   1746.18811
   7259,   2491.63037,   1747.18811
   7260,   2490.63037,   1745.18811
   7261,   2491.13037,   1744.18811
   7262,   2491.63037,   1745.18811
   7263,   2490.63037,   1743.18811
   7264,   2491.13037,   1742.18811
   7265,   2491.63037,   1743.18811
   7266,   2490.63037,   1741.18811
   7267,   2491.13037,   1740.18811
   7268,   2491.63037,   1741.18811
   7269,   2429.63037,   1742.20984
   7270,   2430.13037,   1741.23157
   7271,   2430.63037,   1742.20984
   7272,   2429.63037,    1740.2533
   7273,   2430.13037,   1739.27502
   7274,   2430.63037,    1740.2533
   7275,   2429.63037,   1738.29675
   7276,   2430.13037,   1737.31848
   7277,   2430.63037,   1738.29675
   7278,   2429.63037,   1736.34033
   7279,   2430.13037,   1735.36206
   7280,   2430.63037,   1736.34033
   7281,   2429.63037,   1734.38379
   7282,   2430.13037,   1733.40552
   7283,   2430.63037,   1734.38379
   7284,   2429.63037,   1732.42725
   7285,   2430.13037,   1731.44897
   7286,   2430.63037,   1732.42725
   7287,   2429.63037,    1730.4707
   7288,   2430.13037,   1729.49243
   7289,   2430.63037,    1730.4707
   7290,   2429.63037,   1728.51416
   7291,   2430.13037,   1727.53589
   7292,   2430.63037,   1728.51416
   7293,   2429.63037,   1726.55762
   7294,   2430.13037,   1725.57947
   7295,   2430.63037,   1726.55762
   7296,   2429.63037,    1724.6012
   7297,   2430.13037,   1723.62292
   7298,   2430.63037,    1724.6012
   7299,   2429.63037,   1722.64465
   7300,   2430.13037,   1721.66638
   7301,   2430.63037,   1722.64465
   7302,   2429.63037,   1720.68811
   7303,   2430.13037,   1719.70984
   7304,   2430.63037,   1720.68811
   7305,   2429.63037,   1718.73157
   7306,   2430.13037,    1717.7533
   7307,   2430.63037,   1718.73157
   7308,   2429.63037,   1716.77502
   7309,   2430.13037,   1715.79675
   7310,   2430.63037,   1716.77502
   7311,   2429.63037,    1714.8186
   7312,   2430.13037,   1713.84033
   7313,   2430.63037,    1714.8186
   7314,   2429.63037,   1712.86206
   7315,   2430.13037,   1711.88379
   7316,   2430.63037,   1712.86206
   7317,   2429.63037,   1710.90552
   7318,   2430.13037,   1709.92725
   7319,   2430.63037,   1710.90552
   7320,   2429.63037,   1708.94897
   7321,   2430.13037,    1707.9707
   7322,   2430.63037,   1708.94897
   7323,   2429.63037,   1706.99243
   7324,   2430.13037,   1706.01416
   7325,   2430.63037,   1706.99243
   7326,   2429.63037,   1705.03589
   7327,   2430.13037,   1704.05762
   7328,   2430.63037,   1705.03589
   7329,   2429.63037,   1703.07935
   7330,   2430.13037,    1702.1012
   7331,   2430.63037,   1703.07935
   7332,   2429.63037,   1701.12292
   7333,   2430.13037,   1700.14465
   7334,   2430.63037,   1701.12292
   7335,   2429.63037,   1699.16638
   7336,   2430.13037,   1698.18811
   7337,   2430.63037,   1699.16638
   7338,   2490.63037,   1739.18811
   7339,   2491.13037,   1738.18811
   7340,   2491.63037,   1739.18811
   7341,   2490.63037,   1737.18811
   7342,   2491.13037,   1736.18811
   7343,   2491.63037,   1737.18811
   7344,   2490.63037,   1735.18811
   7345,   2491.13037,   1734.18811
   7346,   2491.63037,   1735.18811
   7347,   2490.63037,   1733.18811
   7348,   2491.13037,   1732.18811
   7349,   2491.63037,   1733.18811
   7350,   2490.63037,   1731.18811
   7351,   2491.13037,   1730.18811
   7352,   2491.63037,   1731.18811
   7353,   2429.63037,   1697.68811
   7354,   2430.13037,   1697.18811
   7355,   2430.63037,   1697.68811
   7356,   2490.63037,   1729.18811
   7357,   2491.13037,   1728.18811
   7358,   2491.63037,   1729.18811
   7359,   2490.63037,   1727.18811
   7360,   2491.13037,   1726.18811
   7361,   2491.63037,   1727.18811
   7362,   2490.63037,   1725.18811
   7363,   2491.13037,   1724.18811
   7364,   2491.63037,   1725.18811
   7365,   2490.63037,   1723.18811
   7366,   2491.13037,   1722.18811
   7367,   2491.63037,   1723.18811
   7368,   2490.63037,   1721.18811
   7369,   2491.13037,   1720.18811
   7370,   2491.63037,   1721.18811
   7371,   2490.63037,   1719.18811
   7372,   2491.13037,   1718.18811
   7373,   2491.63037,   1719.18811
   7374,   2490.63037,   1717.18811
   7375,   2491.13037,   1716.18811
   7376,   2491.63037,   1717.18811
   7377,   2490.63037,   1715.18811
   7378,   2491.13037,   1714.18811
   7379,   2491.63037,   1715.18811
   7380,   2490.63037,   1713.18811
   7381,   2491.13037,   1712.18811
   7382,   2491.63037,   1713.18811
   7383,   2490.63037,   1711.18811
   7384,   2491.13037,   1710.18811
   7385,   2491.63037,   1711.18811
   7386,   2490.63037,   1709.18811
   7387,   2491.13037,   1708.18811
   7388,   2491.63037,   1709.18811
   7389,   2490.63037,   1707.18811
   7390,   2491.13037,   1706.18811
   7391,   2491.63037,   1707.18811
   7392,   2490.63037,   1705.18811
   7393,   2491.13037,   1704.18811
   7394,   2491.63037,   1705.18811
   7395,   2490.63037,   1703.18811
   7396,   2491.13037,   1702.18811
   7397,   2491.63037,   1703.18811
   7398,   2490.63037,   1701.18811
   7399,   2491.13037,   1700.18811
   7400,   2491.63037,   1701.18811
   7401,   2490.63037,   1699.18811
   7402,   2491.13037,   1698.18811
   7403,   2491.63037,   1699.18811
   7404,   2431.63037,   1697.18811
   7405,   2432.63037,   1697.68811
   7406,   2431.63037,   1698.18811
   7407,   2433.63037,   1697.18811
   7408,   2434.63037,   1697.68811
   7409,   2433.63037,   1698.18811
   7410,   2435.63037,   1697.18811
   7411,   2436.63037,   1697.68811
   7412,   2435.63037,   1698.18811
   7413,   2437.63037,   1697.18811
   7414,   2438.63037,   1697.68811
   7415,   2437.63037,   1698.18811
   7416,   2439.63037,   1697.18811
   7417,   2440.63037,   1697.68811
   7418,   2439.63037,   1698.18811
   7419,   2490.63037,   1697.68811
   7420,   2491.13037,   1697.18811
   7421,   2491.63037,   1697.68811
   7422,   2441.63037,   1697.18811
   7423,   2442.63037,   1697.68811
   7424,   2441.63037,   1698.18811
   7425,   2443.63037,   1697.18811
   7426,   2444.63037,   1697.68811
   7427,   2443.63037,   1698.18811
   7428,   2445.63037,   1697.18811
   7429,   2446.63037,   1697.68811
   7430,   2445.63037,   1698.18811
   7431,   2447.63037,   1697.18811
   7432,   2448.63037,   1697.68811
   7433,   2447.63037,   1698.18811
   7434,   2449.63037,   1697.18811
   7435,   2450.63037,   1697.68811
   7436,   2449.63037,   1698.18811
   7437,   2489.63037,   1698.18811
   7438,   2488.63037,   1697.68811
   7439,   2489.63037,   1697.18811
   7440,   2487.63037,   1698.18811
   7441,   2486.63037,   1697.68811
   7442,   2487.63037,   1697.18811
   7443,   2485.63037,   1698.18811
   7444,   2484.63037,   1697.68811
   7445,   2485.63037,   1697.18811
   7446,   2483.63037,   1698.18811
   7447,   2482.63037,   1697.68811
   7448,   2483.63037,   1697.18811
   7449,   2481.63037,   1698.18811
   7450,   2480.63037,   1697.68811
   7451,   2481.63037,   1697.18811
   7452,   2479.63037,   1698.18811
   7453,   2478.63037,   1697.68811
   7454,   2479.63037,   1697.18811
   7455,   2477.63037,   1698.18811
   7456,   2476.63037,   1697.68811
   7457,   2477.63037,   1697.18811
   7458,   2475.63037,   1698.18811
   7459,   2474.63037,   1697.68811
   7460,   2475.63037,   1697.18811
   7461,   2473.63037,   1698.18811
   7462,   2472.63037,   1697.68811
   7463,   2473.63037,   1697.18811
   7464,   2471.63037,   1698.18811
   7465,   2470.63037,   1697.68811
   7466,   2471.63037,   1697.18811
   7467,   2451.13037,   1698.18811
   7468,   2451.13037,   1697.18811
   7469,   2451.63037,   1697.68811
   7470,   2470.13037,   1698.18811
   7471,   2469.63037,   1697.68811
   7472,   2470.13037,   1697.18811
   7473,   2451.63037,   1699.18811
   7474,   2451.13037,   1700.18811
   7475,   2450.63037,   1699.18811
   7476,   2451.63037,   1701.18811
   7477,   2451.13037,   1702.18811
   7478,   2450.63037,   1701.18811
   7479,   2451.63037,   1703.18811
   7480,   2451.13037,   1704.18811
   7481,   2450.63037,   1703.18811
   7482,   2451.63037,   1705.18811
   7483,   2451.13037,   1706.18811
   7484,   2450.63037,   1705.18811
   7485,   2451.63037,   1707.18811
   7486,   2451.13037,   1708.18811
   7487,   2450.63037,   1707.18811
   7488,   2451.63037,   1709.18811
   7489,   2451.13037,   1710.18811
   7490,   2450.63037,   1709.18811
   7491,   2451.63037,   1711.18811
   7492,   2451.13037,   1712.18811
   7493,   2450.63037,   1711.18811
   7494,   2451.63037,   1713.18811
   7495,   2451.13037,   1714.18811
   7496,   2450.63037,   1713.18811
   7497,   2451.63037,   1715.18811
   7498,   2451.13037,   1716.18811
   7499,   2450.63037,   1715.18811
   7500,   2451.63037,   1717.18811
   7501,   2451.13037,   1718.18811
   7502,   2450.63037,   1717.18811
   7503,   2451.63037,   1719.18811
   7504,   2451.13037,   1720.18811
   7505,   2450.63037,   1719.18811
   7506,   2451.63037,   1721.18811
   7507,   2451.13037,   1722.18811
   7508,   2450.63037,   1721.18811
   7509,   2451.63037,   1723.18811
   7510,   2451.13037,   1724.18811
   7511,   2450.63037,   1723.18811
   7512,   2451.63037,   1725.18811
   7513,   2451.13037,   1726.18811
   7514,   2450.63037,   1725.18811
   7515,   2451.63037,   1727.18811
   7516,   2451.13037,   1728.18811
   7517,   2450.63037,   1727.18811
   7518,   2451.63037,   1729.18811
   7519,   2451.13037,   1730.18811
   7520,   2450.63037,   1729.18811
   7521,   2451.63037,   1731.18811
   7522,   2451.13037,   1732.18811
   7523,   2450.63037,   1731.18811
   7524,   2451.63037,   1733.18811
   7525,   2451.13037,   1734.18811
   7526,   2450.63037,   1733.18811
   7527,   2451.63037,   1735.18811
   7528,   2451.13037,   1736.18811
   7529,   2450.63037,   1735.18811
   7530,   2451.63037,   1737.18811
   7531,   2451.13037,   1738.18811
   7532,   2450.63037,   1737.18811
   7533,   2470.13037,   1738.18811
   7534,   2469.63037,   1737.18811
   7535,   2470.13037,   1736.18811
   7536,   2470.63037,   1737.18811
   7537,   2469.63037,   1735.18811
   7538,   2470.13037,   1734.18811
   7539,   2470.63037,   1735.18811
   7540,   2469.63037,   1733.18811
   7541,   2470.13037,   1732.18811
   7542,   2470.63037,   1733.18811
   7543,   2469.63037,   1731.18811
   7544,   2470.13037,   1730.18811
   7545,   2470.63037,   1731.18811
   7546,   2469.63037,   1729.18811
   7547,   2470.13037,   1728.18811
   7548,   2470.63037,   1729.18811
   7549,   2469.63037,   1727.18811
   7550,   2470.13037,   1726.18811
   7551,   2470.63037,   1727.18811
   7552,   2469.63037,   1725.18811
   7553,   2470.13037,   1724.18811
   7554,   2470.63037,   1725.18811
   7555,   2469.63037,   1723.18811
   7556,   2470.13037,   1722.18811
   7557,   2470.63037,   1723.18811
   7558,   2469.63037,   1721.18811
   7559,   2470.13037,   1720.18811
   7560,   2470.63037,   1721.18811
   7561,   2469.63037,   1719.18811
   7562,   2470.13037,   1718.18811
   7563,   2470.63037,   1719.18811
   7564,   2469.63037,   1717.18811
   7565,   2470.13037,   1716.18811
   7566,   2470.63037,   1717.18811
   7567,   2469.63037,   1715.18811
   7568,   2470.13037,   1714.18811
   7569,   2470.63037,   1715.18811
   7570,   2469.63037,   1713.18811
   7571,   2470.13037,   1712.18811
   7572,   2470.63037,   1713.18811
   7573,   2469.63037,   1711.18811
   7574,   2470.13037,   1710.18811
   7575,   2470.63037,   1711.18811
   7576,   2469.63037,   1709.18811
   7577,   2470.13037,   1708.18811
   7578,   2470.63037,   1709.18811
   7579,   2469.63037,   1707.18811
   7580,   2470.13037,   1706.18811
   7581,   2470.63037,   1707.18811
   7582,   2469.63037,   1705.18811
   7583,   2470.13037,   1704.18811
   7584,   2470.63037,   1705.18811
   7585,   2469.63037,   1703.18811
   7586,   2470.13037,   1702.18811
   7587,   2470.63037,   1703.18811
   7588,   2469.63037,   1701.18811
   7589,   2470.13037,   1700.18811
   7590,   2470.63037,   1701.18811
   7591,   2469.63037,   1699.18811
   7592,   2470.63037,   1699.18811
   7593,   2451.13037,   1742.18811
   7594,   2450.63037,   1741.18811
   7595,   2451.13037,   1740.18811
   7596,   2451.63037,   1741.18811
   7597,   2450.63037,   1739.18811
   7598,   2451.63037,   1739.18811
   7599,   2470.63037,   1739.18811
   7600,   2470.13037,   1740.18811
   7601,   2469.63037,   1739.18811
   7602,   2470.63037,   1741.18811
   7603,   2470.13037,   1742.18811
   7604,   2469.63037,   1741.18811
   7605,   2451.63037,   1742.68811
   7606,   2451.13037,   1743.18811
   7607,   2450.63037,   1742.68811
   7608,   2470.13037,   1743.18811
   7609,   2469.63037,   1742.68811
   7610,   2470.63037,   1742.68811
   7611,   2451.13037,   1747.18811
   7612,   2450.63037,   1746.18811
   7613,   2451.13037,   1745.18811
   7614,   2451.63037,   1746.18811
   7615,   2450.63037,   1744.18811
   7616,   2451.63037,   1744.18811
   7617,   2470.63037,   1744.18811
   7618,   2470.13037,   1745.18811
   7619,   2469.63037,   1744.18811
   7620,   2470.63037,   1746.18811
   7621,   2470.13037,   1747.18811
   7622,   2469.63037,   1746.18811
   7623,   2451.63037,   1747.68811
   7624,   2451.13037,   1748.18811
   7625,   2450.63037,   1747.68811
   7626,   2469.63037,   1747.68811
   7627,   2470.63037,   1747.68811
   7628,   2470.13037,   1748.18811
   7629,   2452.63037,   1747.18811
   7630,   2453.63037,   1747.68811
   7631,   2452.63037,   1748.18811
   7632,   2454.63037,   1747.18811
   7633,   2455.63037,   1747.68811
   7634,   2454.63037,   1748.18811
   7635,   2465.63037,   1747.68811
   7636,   2466.63037,   1747.18811
   7637,   2467.63037,   1747.68811
   7638,   2466.63037,   1748.18811
   7639,   2468.63037,   1747.18811
   7640,   2468.63037,   1748.18811
   7641,   2456.63037,   1747.68811
   7642,   2456.13037,   1748.18811
   7643,   2456.13037,   1747.18811
   7644,   2465.13037,   1748.18811
   7645,   2464.63037,   1747.68811
   7646,   2465.13037,   1747.18811
   7647,   2457.63037,   1747.18811
   7648,   2458.63037,   1747.68811
   7649,   2457.63037,   1748.18811
   7650,   2459.63037,   1747.18811
   7651,   2460.63037,   1747.68811
   7652,   2459.63037,   1748.18811
   7653,   2461.63037,   1747.68811
   7654,   2462.38037,   1747.18811
   7655,   2463.13037,   1747.68811
   7656,   2462.38037,   1748.18811
   7657,   2463.88037,   1747.18811
   7658,   2463.88037,   1748.18811
   7659,   2390.63037,   1687.18811
   7660,   2391.63037,   1687.68811
   7661,   2390.63037,   1688.18811
   7662,   2390.63037,   1684.18811
   7663,   2391.63037,   1685.68811
   7664,   2389.63037,   1685.68811
   7665,   2390.63037,   1683.18811
   7666,   2391.63037,   1683.68811
   7667,   2391.63037,   1680.18811
   7668,   2390.63037,   1681.18811
   7669,   2391.63037,   1682.18811
   7670,   2392.13037,   1681.18811
   7671,   2392.63037,   1682.18811
   7672,   2392.13037,   1683.18811
   7673,   2392.63037,   1680.18811
   7674,   2393.63037,   1681.18811
   7675,   2394.63037,   1682.18811
   7676,   2393.63037,   1683.18811
   7677,   2394.63037,   1680.18811
   7678,   2395.63037,   1680.18811
   7679,   2395.13037,   1681.18811
   7680,   2395.63037,   1682.18811
   7681,   2395.13037,   1683.18811
   7682,   2396.63037,   1681.18811
   7683,   2397.63037,   1682.18811
   7684,   2396.63037,   1683.18811
   7685,   2397.63037,   1680.18811
   7686,   2398.63037,   1681.18811
   7687,   2399.63037,   1682.18811
   7688,   2398.63037,   1683.18811
   7689,   2399.63037,   1680.18811
   7690,   2400.63037,   1680.18811
   7691,   2400.13037,   1681.18811
   7692,   2400.63037,   1682.18811
   7693,   2400.13037,   1683.18811
   7694,   2401.63037,   1681.18811
   7695,   2402.63037,   1682.18811
   7696,   2401.63037,   1683.18811
   7697,   2402.63037,   1680.18811
   7698,   2403.63037,   1681.18811
   7699,   2404.63037,   1682.18811
   7700,   2403.63037,   1683.18811
   7701,   2404.63037,   1680.18811
   7702,   2405.13037,   1681.18811
   7703,   2405.63037,   1682.18811
   7704,   2405.13037,   1683.18811
   7705,   2405.63037,   1680.18811
   7706,   2406.63037,   1681.18811
   7707,   2407.63037,   1682.18811
   7708,   2406.63037,   1683.18811
   7709,   2407.63037,   1680.18811
   7710,   2408.63037,   1681.18811
   7711,   2409.63037,   1682.18811
   7712,   2408.63037,   1683.18811
   7713,   2409.63037,   1680.18811
   7714,   2410.13037,   1681.18811
   7715,   2410.63037,   1682.18811
   7716,   2410.13037,   1683.18811
   7717,   2410.63037,   1680.18811
   7718,   2411.63037,   1681.18811
   7719,   2412.63037,   1682.18811
   7720,   2411.63037,   1683.18811
   7721,   2412.63037,   1680.18811
   7722,   2413.63037,   1681.18811
   7723,   2414.63037,   1682.18811
   7724,   2413.63037,   1683.18811
   7725,   2414.63037,   1680.18811
   7726,   2415.13037,   1681.18811
   7727,   2415.63037,   1682.18811
   7728,   2415.13037,   1683.18811
   7729,   2415.63037,   1680.18811
   7730,   2416.63037,   1681.18811
   7731,   2417.63037,   1682.18811
   7732,   2416.63037,   1683.18811
   7733,   2417.63037,   1680.18811
   7734,   2418.63037,   1681.18811
   7735,   2419.63037,   1682.18811
   7736,   2418.63037,   1683.18811
   7737,   2419.63037,   1680.18811
   7738,   2420.13037,   1681.18811
   7739,   2420.63037,   1682.18811
   7740,   2420.13037,   1683.18811
   7741,   2420.63037,   1680.18811
   7742,   2421.63037,   1681.18811
   7743,   2422.63037,   1682.18811
   7744,   2422.63037,   1680.18811
   7745,   2423.63037,   1681.18811
   7746,   2424.63037,   1682.18811
   7747,   2424.63037,   1680.18811
   7748,   2425.13037,   1681.18811
   7749,   2425.63037,   1682.18811
   7750,   2425.13037,   1683.18811
   7751,   2425.63037,   1680.18811
   7752,   2426.63037,   1681.18811
   7753,   2427.63037,   1682.18811
   7754,   2427.63037,   1680.18811
   7755,   2428.63037,   1681.18811
   7756,   2429.63037,   1682.18811
   7757,   2429.63037,   1680.18811
   7758,   2430.13037,   1681.18811
   7759,   2430.63037,   1682.18811
   7760,   2430.63037,   1680.18811
   7761,   2431.63037,   1681.18811
   7762,   2432.63037,   1682.18811
   7763,   2432.63037,   1680.18811
   7764,   2433.63037,   1681.18811
   7765,   2434.63037,   1682.18811
   7766,   2434.63037,   1680.18811
   7767,   2435.63037,   1681.18811
   7768,   2436.63037,   1682.18811
   7769,   2436.63037,   1680.18811
   7770,   2437.63037,   1681.18811
   7771,   2438.63037,   1682.18811
   7772,   2438.63037,   1680.18811
   7773,   2439.63037,   1681.18811
   7774,   2440.63037,   1682.18811
   7775,   2440.63037,   1680.18811
   7776,   2450.63037,   1680.18811
   7777,   2449.63037,   1681.18811
   7778,   2448.63037,   1680.18811
   7779,   2450.63037,   1682.18811
   7780,   2449.63037,   1683.18811
   7781,   2448.63037,   1682.18811
   7782,   2447.63037,   1681.18811
   7783,   2446.63037,   1680.18811
   7784,   2447.63037,   1683.18811
   7785,   2446.63037,   1682.18811
   7786,   2445.63037,   1681.18811
   7787,   2444.63037,   1680.18811
   7788,   2445.63037,   1683.18811
   7789,   2444.63037,   1682.18811
   7790,   2443.63037,   1681.18811
   7791,   2442.63037,   1680.18811
   7792,   2443.63037,   1683.18811
   7793,   2442.63037,   1682.18811
   7794,   2441.63037,   1681.18811
   7795,   2441.63037,   1683.18811
   7796,   2451.13037,   1681.18811
   7797,   2451.63037,   1682.18811
   7798,   2451.13037,   1683.18811
   7799,   2451.63037,   1680.18811
   7800,   2455.63037,   1680.18811
   7801,   2454.63037,   1681.18811
   7802,   2453.63037,   1680.18811
   7803,   2455.63037,   1682.18811
   7804,   2454.63037,   1683.18811
   7805,   2453.63037,   1682.18811
   7806,   2452.63037,   1681.18811
   7807,   2452.63037,   1683.18811
   7808,   2456.63037,   1680.18811
   7809,   2456.13037,   1681.18811
   7810,   2456.63037,   1682.18811
   7811,   2456.13037,   1683.18811
   7812,   2457.63037,   1681.18811
   7813,   2458.63037,   1682.18811
   7814,   2457.63037,   1683.18811
   7815,   2458.63037,   1680.18811
   7816,   2459.63037,   1681.18811
   7817,   2460.63037,   1682.18811
   7818,   2459.63037,   1683.18811
   7819,   2460.63037,   1680.18811
   7820,   2461.13037,   1681.18811
   7821,   2461.63037,   1682.18811
   7822,   2461.13037,   1683.18811
   7823,   2461.63037,   1680.18811
   7824,   2464.63037,   1680.18811
   7825,   2463.88037,   1681.18811
   7826,   2463.13037,   1680.18811
   7827,   2464.63037,   1682.18811
   7828,   2463.88037,   1683.18811
   7829,   2463.13037,   1682.18811
   7830,   2462.38037,   1681.18811
   7831,   2462.38037,   1683.18811
   7832,   2465.13037,   1681.18811
   7833,   2465.63037,   1682.18811
   7834,   2465.13037,   1683.18811
   7835,   2465.63037,   1680.18811
   7836,   2466.63037,   1681.18811
   7837,   2467.63037,   1682.18811
   7838,   2466.63037,   1683.18811
   7839,   2467.63037,   1680.18811
   7840,   2468.63037,   1681.18811
   7841,   2469.63037,   1682.18811
   7842,   2468.63037,   1683.18811
   7843,   2469.63037,   1680.18811
   7844,   2470.63037,   1680.18811
   7845,   2470.13037,   1681.18811
   7846,   2470.63037,   1682.18811
   7847,   2470.13037,   1683.18811
   7848,   2490.63037,   1680.18811
   7849,   2489.63037,   1681.18811
   7850,   2488.63037,   1680.18811
   7851,   2490.63037,   1682.18811
   7852,   2489.63037,   1683.18811
   7853,   2488.63037,   1682.18811
   7854,   2487.63037,   1681.18811
   7855,   2486.63037,   1680.18811
   7856,   2487.63037,   1683.18811
   7857,   2486.63037,   1682.18811
   7858,   2485.63037,   1681.18811
   7859,   2484.63037,   1680.18811
   7860,   2485.63037,   1683.18811
   7861,   2484.63037,   1682.18811
   7862,   2483.63037,   1681.18811
   7863,   2482.63037,   1680.18811
   7864,   2483.63037,   1683.18811
   7865,   2482.63037,   1682.18811
   7866,   2481.63037,   1681.18811
   7867,   2480.63037,   1680.18811
   7868,   2481.63037,   1683.18811
   7869,   2480.63037,   1682.18811
   7870,   2479.63037,   1681.18811
   7871,   2478.63037,   1680.18811
   7872,   2479.63037,   1683.18811
   7873,   2478.63037,   1682.18811
   7874,   2477.63037,   1681.18811
   7875,   2476.63037,   1680.18811
   7876,   2477.63037,   1683.18811
   7877,   2476.63037,   1682.18811
   7878,   2475.63037,   1681.18811
   7879,   2474.63037,   1680.18811
   7880,   2475.63037,   1683.18811
   7881,   2474.63037,   1682.18811
   7882,   2473.63037,   1681.18811
   7883,   2472.63037,   1680.18811
   7884,   2473.63037,   1683.18811
   7885,   2472.63037,   1682.18811
   7886,   2471.63037,   1681.18811
   7887,   2471.63037,   1683.18811
   7888,   2491.63037,   1680.18811
   7889,   2491.13037,   1681.18811
   7890,   2491.63037,   1682.18811
   7891,   2491.13037,   1683.18811
   7892,   2495.63037,   1680.18811
   7893,   2494.63037,   1681.18811
   7894,   2493.63037,   1680.18811
   7895,   2495.63037,   1682.18811
   7896,   2494.63037,   1683.18811
   7897,   2493.63037,   1682.18811
   7898,   2492.63037,   1681.18811
   7899,   2492.63037,   1683.18811
   7900,   2496.63037,   1680.18811
   7901,   2496.13037,   1681.18811
   7902,   2496.63037,   1682.18811
   7903,   2496.13037,   1683.18811
   7904,   2497.63037,   1680.18811
   7905,   2497.13037,   1681.18811
   7906,   2497.63037,   1682.18811
   7907,   2497.13037,   1683.18811
   7908,   2500.63037,   1680.18811
   7909,   2499.13037,   1681.18811
   7910,   2500.63037,   1682.18811
   7911,   2499.13037,   1683.18811
   7912,   2501.13037,   1681.18811
   7913,   2501.63037,   1682.18811
   7914,   2501.13037,   1683.18811
   7915,   2501.63037,   1680.18811
   7916,   2502.13037,   1681.18811
   7917,   2502.63037,   1682.18811
   7918,   2502.13037,   1683.18811
   7919,   2502.63037,   1680.18811
   7920,   2504.63037,   1680.18811
   7921,   2503.63037,   1681.18811
   7922,   2504.63037,   1682.18811
   7923,   2503.63037,   1683.18811
   7924,   2505.13037,   1681.18811
   7925,   2505.63037,   1682.18811
   7926,   2505.13037,   1683.18811
   7927,   2505.63037,   1680.18811
   7928,   2506.63037,   1681.18811
   7929,   2507.63037,   1682.18811
   7930,   2506.63037,   1683.18811
   7931,   2507.63037,   1680.18811
   7932,   2508.63037,   1681.18811
   7933,   2508.63037,   1683.18811
   7934,   2508.63037,   1684.18811
   7935,   2507.63037,   1683.68811
   7936,   2506.63037,   1684.18811
   7937,   2505.63037,   1683.68811
   7938,   2507.63037,   1685.68811
   7939,   2506.63037,   1687.18811
   7940,   2505.63037,   1685.68811
   7941,   2508.63037,   1687.18811
   7942,   2507.63037,   1687.68811
   7943,   2506.63037,   1688.18811
   7944,   2505.63037,   1687.68811
   7945,   2508.63037,   1688.18811
   7946,   2507.63037,   1689.18811
   7947,   2506.63037,   1690.18811
   7948,   2505.63037,   1689.18811
   7949,   2508.63037,   1690.18811
   7950,   2508.63037,   1692.18811
   7951,   2507.63037,   1691.18811
   7952,   2506.63037,   1692.18811
   7953,   2505.63037,   1691.18811
   7954,   2507.63037,   1692.68811
   7955,   2506.63037,   1693.18811
   7956,   2505.63037,   1692.68811
   7957,   2508.63037,   1693.18811
   7958,   2507.63037,   1693.68811
   7959,   2506.63037,   1694.18811
   7960,   2505.63037,   1693.68811
   7961,   2508.63037,   1694.18811
   7962,   2508.63037,   1697.18811
   7963,   2507.63037,   1696.43811
   7964,   2508.63037,   1695.68811
   7965,   2506.63037,   1697.18811
   7966,   2505.63037,   1696.43811
   7967,   2506.63037,   1695.68811
   7968,   2507.63037,   1694.93811
   7969,   2505.63037,   1694.93811
   7970,   2374.63037,   1687.68811
   7971,   2375.54712,   1687.18811
   7972,   2376.46362,   1687.68811
   7973,   2375.54712,   1688.18811
   7974,   2377.38037,   1687.18811
   7975,   2378.29712,   1687.68811
   7976,   2377.38037,   1688.18811
   7977,   2379.21387,   1687.18811
   7978,   2380.13037,   1687.68811
   7979,   2379.21387,   1688.18811
   7980,   2381.04688,   1687.18811
   7981,   2381.96362,   1687.68811
   7982,   2381.04688,   1688.18811
   7983,   2382.88037,   1687.18811
   7984,   2383.79712,   1687.68811
   7985,   2382.88037,   1688.18811
   7986,   2384.71387,   1687.18811
   7987,   2384.71387,   1688.18811
   7988,   2508.63037,   1698.18811
   7989,   2507.63037,   1697.68811
   7990,   2506.63037,   1698.18811
   7991,   2505.63037,   1697.68811
   7992,   2371.63037,   1687.18811
   7993,   2372.63037,   1687.68811
   7994,   2371.63037,   1688.18811
   7995,   2370.63037,   1687.68811
   7996,   2373.63037,   1687.18811
   7997,   2373.63037,   1688.18811
   7998,   2374.63037,   1685.68811
   7999,   2376.46362,   1685.68811
   8000,   2378.29712,   1685.68811
   8001,   2380.13037,   1685.68811
   8002,   2381.96362,   1685.68811
   8003,   2383.79712,   1685.68811
   8004,   2385.63037,   1685.68811
   8005,   2508.63037,   1730.18811
   8006,   2507.63037,   1729.18811
   8007,   2508.63037,   1728.18811
   8008,   2506.63037,   1730.18811
   8009,   2505.63037,   1729.18811
   8010,   2506.63037,   1728.18811
   8011,   2507.63037,   1727.18811
   8012,   2508.63037,   1726.18811
   8013,   2505.63037,   1727.18811
   8014,   2506.63037,   1726.18811
   8015,   2507.63037,   1725.18811
   8016,   2508.63037,   1724.18811
   8017,   2505.63037,   1725.18811
   8018,   2506.63037,   1724.18811
   8019,   2507.63037,   1723.18811
   8020,   2508.63037,   1722.18811
   8021,   2505.63037,   1723.18811
   8022,   2506.63037,   1722.18811
   8023,   2507.63037,   1721.18811
   8024,   2508.63037,   1720.18811
   8025,   2505.63037,   1721.18811
   8026,   2506.63037,   1720.18811
   8027,   2507.63037,   1719.18811
   8028,   2508.63037,   1718.18811
   8029,   2505.63037,   1719.18811
   8030,   2506.63037,   1718.18811
   8031,   2507.63037,   1717.18811
   8032,   2508.63037,   1716.18811
   8033,   2505.63037,   1717.18811
   8034,   2506.63037,   1716.18811
   8035,   2507.63037,   1715.18811
   8036,   2508.63037,   1714.18811
   8037,   2505.63037,   1715.18811
   8038,   2506.63037,   1714.18811
   8039,   2507.63037,   1713.18811
   8040,   2508.63037,   1712.18811
   8041,   2505.63037,   1713.18811
   8042,   2506.63037,   1712.18811
   8043,   2507.63037,   1711.18811
   8044,   2508.63037,   1710.18811
   8045,   2505.63037,   1711.18811
   8046,   2506.63037,   1710.18811
   8047,   2507.63037,   1709.18811
   8048,   2508.63037,   1708.18811
   8049,   2505.63037,   1709.18811
   8050,   2506.63037,   1708.18811
   8051,   2507.63037,   1707.18811
   8052,   2508.63037,   1706.18811
   8053,   2505.63037,   1707.18811
   8054,   2506.63037,   1706.18811
   8055,   2507.63037,   1705.18811
   8056,   2508.63037,   1704.18811
   8057,   2505.63037,   1705.18811
   8058,   2506.63037,   1704.18811
   8059,   2507.63037,   1703.18811
   8060,   2508.63037,   1702.18811
   8061,   2505.63037,   1703.18811
   8062,   2506.63037,   1702.18811
   8063,   2507.63037,   1701.18811
   8064,   2508.63037,   1700.18811
   8065,   2505.63037,   1701.18811
   8066,   2506.63037,   1700.18811
   8067,   2507.63037,   1699.18811
   8068,   2505.63037,   1699.18811
   8069,   2371.63037,   1684.18811
   8070,   2372.63037,   1685.68811
   8071,   2370.63037,   1685.68811
   8072,   2373.63037,   1684.18811
   8073,   2507.63037,   1731.18811
   8074,   2506.63037,   1732.18811
   8075,   2505.63037,   1731.18811
   8076,   2508.63037,   1732.18811
   8077,   2507.63037,   1733.18811
   8078,   2506.63037,   1734.18811
   8079,   2505.63037,   1733.18811
   8080,   2508.63037,   1734.18811
   8081,   2507.63037,   1735.18811
   8082,   2506.63037,   1736.18811
   8083,   2505.63037,   1735.18811
   8084,   2508.63037,   1736.18811
   8085,   2507.63037,   1737.18811
   8086,   2506.63037,   1738.18811
   8087,   2505.63037,   1737.18811
   8088,   2508.63037,   1738.18811
   8089,   2507.63037,   1739.18811
   8090,   2506.63037,   1740.18811
   8091,   2505.63037,   1739.18811
   8092,   2508.63037,   1740.18811
   8093,   2371.63037,   1683.18811
   8094,   2372.63037,   1683.68811
   8095,   2370.63037,   1683.68811
   8096,   2373.63037,   1683.18811
   8097,   2507.63037,   1741.18811
   8098,   2506.63037,   1742.18811
   8099,   2505.63037,   1741.18811
   8100,   2508.63037,   1742.18811
   8101,   2507.63037,   1743.18811
   8102,   2506.63037,   1744.18811
   8103,   2505.63037,   1743.18811
   8104,   2508.63037,   1744.18811
   8105,   2507.63037,   1745.18811
   8106,   2506.63037,   1746.18811
   8107,   2505.63037,   1745.18811
   8108,   2508.63037,   1746.18811
   8109,   2507.63037,   1747.18811
   8110,   2506.63037,   1748.18811
   8111,   2505.63037,   1747.18811
   8112,   2508.63037,   1748.18811
   8113,   2507.63037,   1749.18811
   8114,   2506.63037,   1750.18811
   8115,   2505.63037,   1749.18811
   8116,   2508.63037,   1750.18811
   8117,   2507.63037,   1751.18811
   8118,   2506.63037,   1752.18811
   8119,   2505.63037,   1751.18811
   8120,   2508.63037,   1752.18811
   8121,   2507.63037,   1753.18811
   8122,   2506.63037,   1754.18811
   8123,   2505.63037,   1753.18811
   8124,   2508.63037,   1754.18811
   8125,   2507.63037,   1755.18811
   8126,   2506.63037,   1756.18811
   8127,   2505.63037,   1755.18811
   8128,   2508.63037,   1756.18811
   8129,   2507.63037,   1757.18811
   8130,   2506.63037,   1758.18811
   8131,   2505.63037,   1757.18811
   8132,   2508.63037,   1758.18811
   8133,   2507.63037,   1759.18811
   8134,   2506.63037,   1760.18811
   8135,   2505.63037,   1759.18811
   8136,   2508.63037,   1760.18811
   8137,   2507.63037,   1761.18811
   8138,   2506.63037,   1762.18811
   8139,   2505.63037,   1761.18811
   8140,   2508.63037,   1762.18811
   8141,   2507.63037,   1763.18811
   8142,   2506.63037,   1764.18811
   8143,   2505.63037,   1763.18811
   8144,   2508.63037,   1764.18811
   8145,   2507.63037,   1765.18811
   8146,   2506.63037,   1766.18811
   8147,   2505.63037,   1765.18811
   8148,   2508.63037,   1766.18811
   8149,   2507.63037,   1767.18811
   8150,   2506.63037,   1768.18811
   8151,   2505.63037,   1767.18811
   8152,   2508.63037,   1768.18811
   8153,   2507.63037,   1769.18811
   8154,   2506.63037,   1770.18811
   8155,   2505.63037,   1769.18811
   8156,   2508.63037,   1770.18811
   8157,   2507.63037,   1771.18811
   8158,   2506.63037,   1772.18811
   8159,   2505.63037,   1771.18811
   8160,   2508.63037,   1772.18811
   8161,   2507.63037,   1773.18811
   8162,   2506.63037,   1774.18811
   8163,   2505.63037,   1773.18811
   8164,   2508.63037,   1774.18811
   8165,   2507.63037,   1775.18811
   8166,   2506.63037,   1776.18811
   8167,   2505.63037,   1775.18811
   8168,   2508.63037,   1776.18811
   8169,   2507.63037,   1777.18811
   8170,   2506.63037,   1778.18811
   8171,   2505.63037,   1777.18811
   8172,   2508.63037,   1778.18811
   8173,   2507.63037,   1779.18811
   8174,   2506.63037,   1780.18811
   8175,   2505.63037,   1779.18811
   8176,   2508.63037,   1780.18811
   8177,   2507.63037,   1781.18811
   8178,   2506.63037,   1782.18811
   8179,   2505.63037,   1781.18811
   8180,   2508.63037,   1782.18811
   8181,   2507.63037,   1783.18811
   8182,   2506.63037,   1784.18811
   8183,   2505.63037,   1783.18811
   8184,   2508.63037,   1784.18811
   8185,   2507.63037,   1785.18811
   8186,   2506.63037,   1786.18811
   8187,   2505.63037,   1785.18811
   8188,   2508.63037,   1786.18811
   8189,   2507.63037,   1787.18811
   8190,   2506.63037,   1788.18811
   8191,   2505.63037,   1787.18811
   8192,   2508.63037,   1788.18811
   8193,   2370.63037,   1682.18811
   8194,   2371.63037,   1681.18811
   8195,   2372.63037,   1682.18811
   8196,   2370.63037,   1680.18811
   8197,   2372.63037,   1680.18811
   8198,   2373.63037,   1681.18811
   8199,   2508.63037,   1792.18811
   8200,   2507.63037,   1791.18811
   8201,   2508.63037,   1790.18811
   8202,   2506.63037,   1792.18811
   8203,   2505.63037,   1791.18811
   8204,   2506.63037,   1790.18811
   8205,   2507.63037,   1789.18811
   8206,   2505.63037,   1789.18811
   8207,   2366.63037,   1682.18811
   8208,   2367.63037,   1681.18811
   8209,   2368.63037,   1682.18811
   8210,   2367.63037,   1683.18811
   8211,   2366.63037,   1680.18811
   8212,   2368.63037,   1680.18811
   8213,   2369.63037,   1681.18811
   8214,   2369.63037,   1683.18811
   8215,   2508.63037,   1793.18811
   8216,   2507.63037,   1792.68811
   8217,   2506.63037,   1793.18811
   8218,   2505.63037,   1792.68811
   8219,   2365.63037,   1682.18811
   8220,   2366.13037,   1681.18811
   8221,   2366.13037,   1683.18811
   8222,   2365.63037,   1680.18811
   8223,   2505.63037,   1796.18811
   8224,   2506.63037,   1795.18811
   8225,   2507.63037,   1796.18811
   8226,   2505.63037,   1794.18811
   8227,   2507.63037,   1794.18811
   8228,   2508.63037,   1795.18811
   8229,   2364.63037,   1681.18811
   8230,   2363.63037,   1680.18811
   8231,   2364.63037,   1683.18811
   8232,   2363.63037,   1682.18811
   8233,   2362.63037,   1681.18811
   8234,   2362.63037,   1683.18811
   8235,   2505.13037,   1795.18811
   8236,   2504.63037,   1794.18811
   8237,   2505.13037,   1793.18811
   8238,   2504.63037,   1796.18811
   8239,   2363.63037,   1683.68811
   8240,   2362.63037,   1684.18811
   8241,   2365.63037,   1683.68811
   8242,   2364.63037,   1684.18811
   8243,   2503.63037,   1795.18811
   8244,   2502.63037,   1794.18811
   8245,   2503.63037,   1793.18811
   8246,   2502.63037,   1796.18811
   8247,   2363.63037,   1685.68811
   8248,   2362.63037,   1687.18811
   8249,   2365.63037,   1685.68811
   8250,   2364.63037,   1687.18811
   8251,   2502.13037,   1795.18811
   8252,   2501.63037,   1794.18811
   8253,   2502.13037,   1793.18811
   8254,   2501.63037,   1796.18811
   8255,   2364.63037,   1688.18811
   8256,   2363.63037,   1687.68811
   8257,   2365.63037,   1687.68811
   8258,   2362.63037,   1688.18811
   8259,   2500.63037,   1796.18811
   8260,   2501.13037,   1795.18811
   8261,   2500.63037,   1794.18811
   8262,   2501.13037,   1793.18811
   8263,   2363.63037,   1689.18811
   8264,   2362.63037,   1690.18811
   8265,   2365.63037,   1689.18811
   8266,   2364.63037,   1690.18811
   8267,   2499.13037,   1795.18811
   8268,   2497.63037,   1794.18811
   8269,   2499.13037,   1793.18811
   8270,   2497.63037,   1796.18811
   8271,   2363.63037,   1691.18811
   8272,   2362.63037,   1692.18811
   8273,   2365.63037,   1691.18811
   8274,   2364.63037,   1692.18811
   8275,   2497.13037,   1795.18811
   8276,   2496.63037,   1794.18811
   8277,   2497.13037,   1793.18811
   8278,   2496.63037,   1796.18811
   8279,   2363.63037,   1692.68811
   8280,   2362.63037,   1693.18811
   8281,   2365.63037,   1692.68811
   8282,   2364.63037,   1693.18811
   8283,   2496.13037,   1795.18811
   8284,   2495.63037,   1794.18811
   8285,   2496.13037,   1793.18811
   8286,   2495.63037,   1796.18811
   8287,   2364.63037,   1694.18811
   8288,   2363.63037,   1693.68811
   8289,   2365.63037,   1693.68811
   8290,   2362.63037,   1694.18811
   8291,   2374.63037,   1776.18811
   8292,   2375.54688,   1775.18811
   8293,   2376.46362,   1776.18811
   8294,   2374.63037,   1774.18811
   8295,   2376.46362,   1774.18811
   8296,   2377.38037,   1775.18811
   8297,   2378.29712,   1776.18811
   8298,   2378.29712,   1774.18811
   8299,   2379.21387,   1775.18811
   8300,   2380.13037,   1776.18811
   8301,   2380.13037,   1774.18811
   8302,   2381.04688,   1775.18811
   8303,   2381.96362,   1776.18811
   8304,   2381.96362,   1774.18811
   8305,   2382.88037,   1775.18811
   8306,   2383.79712,   1776.18811
   8307,   2383.79712,   1774.18811
   8308,   2384.71387,   1775.18811
   8309,   2385.63037,   1776.18811
   8310,   2385.63037,   1774.18811
   8311,   2494.63037,   1795.18811
   8312,   2493.63037,   1794.18811
   8313,   2494.63037,   1793.18811
   8314,   2493.63037,   1796.18811
   8315,   2492.63037,   1795.18811
   8316,   2492.63037,   1793.18811
   8317,   2386.63037,   1775.18811
   8318,   2387.63037,   1776.18811
   8319,   2387.63037,   1774.18811
   8320,   2388.63037,   1775.18811
   8321,   2389.63037,   1776.18811
   8322,   2389.63037,   1774.18811
   8323,   2363.63037,   1694.93811
   8324,   2362.63037,   1695.68811
   8325,   2365.63037,   1694.93811
   8326,   2364.63037,   1695.68811
   8327,   2363.63037,   1696.43811
   8328,   2362.63037,   1697.18811
   8329,   2365.63037,   1696.43811
   8330,   2364.63037,   1697.18811
   8331,   2370.63037,   1776.18811
   8332,   2371.63037,   1775.18811
   8333,   2372.63037,   1776.18811
   8334,   2370.63037,   1774.18811
   8335,   2372.63037,   1774.18811
   8336,   2373.63037,   1775.18811
   8337,   2492.63037,   1792.18811
   8338,   2493.63037,   1792.68811
   8339,   2494.63037,   1792.18811
   8340,   2495.63037,   1792.68811
   8341,   2390.63037,   1775.18811
   8342,   2391.63037,   1776.18811
   8343,   2391.63037,   1774.18811
   8344,   2364.63037,   1698.18811
   8345,   2363.63037,   1697.68811
   8346,   2365.63037,   1697.68811
   8347,   2362.63037,   1698.18811
   8348,   2369.63037,   1775.18811
   8349,   2368.63037,   1774.18811
   8350,   2368.63037,   1776.18811
   8351,   2367.63037,   1775.18811
   8352,   2366.63037,   1774.18811
   8353,   2366.63037,   1776.18811
   8354,   2492.63037,   1788.18811
   8355,   2493.63037,   1789.18811
   8356,   2492.63037,   1790.18811
   8357,   2494.63037,   1788.18811
   8358,   2495.63037,   1789.18811
   8359,   2494.63037,   1790.18811
   8360,   2493.63037,   1791.18811
   8361,   2495.63037,   1791.18811
   8362,   2392.13037,   1775.18811
   8363,   2392.63037,   1776.18811
   8364,   2392.63037,   1774.18811
   8365,   2364.63037,   1743.18811
   8366,   2363.63037,   1742.20984
   8367,   2364.63037,   1741.23157
   8368,   2365.63037,   1742.20984
   8369,   2362.63037,   1743.18811
   8370,   2362.63037,   1741.23157
   8371,   2363.63037,    1740.2533
   8372,   2364.63037,   1739.27502
   8373,   2365.63037,    1740.2533
   8374,   2362.63037,   1739.27502
   8375,   2363.63037,   1738.29675
   8376,   2364.63037,   1737.31848
   8377,   2365.63037,   1738.29675
   8378,   2362.63037,   1737.31848
   8379,   2363.63037,   1736.34033
   8380,   2364.63037,   1735.36206
   8381,   2365.63037,   1736.34033
   8382,   2362.63037,   1735.36206
   8383,   2363.63037,   1734.38379
   8384,   2364.63037,   1733.40552
   8385,   2365.63037,   1734.38379
   8386,   2362.63037,   1733.40552
   8387,   2363.63037,   1732.42725
   8388,   2364.63037,   1731.44897
   8389,   2365.63037,   1732.42725
   8390,   2362.63037,   1731.44897
   8391,   2363.63037,    1730.4707
   8392,   2364.63037,   1729.49243
   8393,   2365.63037,    1730.4707
   8394,   2362.63037,   1729.49243
   8395,   2363.63037,   1728.51416
   8396,   2364.63037,   1727.53589
   8397,   2365.63037,   1728.51416
   8398,   2362.63037,   1727.53589
   8399,   2363.63037,   1726.55762
   8400,   2364.63037,   1725.57947
   8401,   2365.63037,   1726.55762
   8402,   2362.63037,   1725.57947
   8403,   2363.63037,    1724.6012
   8404,   2364.63037,   1723.62292
   8405,   2365.63037,    1724.6012
   8406,   2362.63037,   1723.62292
   8407,   2363.63037,   1722.64465
   8408,   2364.63037,   1721.66638
   8409,   2365.63037,   1722.64465
   8410,   2362.63037,   1721.66638
   8411,   2363.63037,   1720.68811
   8412,   2364.63037,   1719.70984
   8413,   2365.63037,   1720.68811
   8414,   2362.63037,   1719.70984
   8415,   2363.63037,   1718.73157
   8416,   2364.63037,    1717.7533
   8417,   2365.63037,   1718.73157
   8418,   2362.63037,    1717.7533
   8419,   2363.63037,   1716.77502
   8420,   2364.63037,   1715.79675
   8421,   2365.63037,   1716.77502
   8422,   2362.63037,   1715.79675
   8423,   2363.63037,    1714.8186
   8424,   2364.63037,   1713.84033
   8425,   2365.63037,    1714.8186
   8426,   2362.63037,   1713.84033
   8427,   2363.63037,   1712.86206
   8428,   2364.63037,   1711.88379
   8429,   2365.63037,   1712.86206
   8430,   2362.63037,   1711.88379
   8431,   2363.63037,   1710.90552
   8432,   2364.63037,   1709.92725
   8433,   2365.63037,   1710.90552
   8434,   2362.63037,   1709.92725
   8435,   2363.63037,   1708.94897
   8436,   2364.63037,    1707.9707
   8437,   2365.63037,   1708.94897
   8438,   2362.63037,    1707.9707
   8439,   2363.63037,   1706.99243
   8440,   2364.63037,   1706.01416
   8441,   2365.63037,   1706.99243
   8442,   2362.63037,   1706.01416
   8443,   2363.63037,   1705.03589
   8444,   2364.63037,   1704.05762
   8445,   2365.63037,   1705.03589
   8446,   2362.63037,   1704.05762
   8447,   2363.63037,   1703.07935
   8448,   2364.63037,    1702.1012
   8449,   2365.63037,   1703.07935
   8450,   2362.63037,    1702.1012
   8451,   2363.63037,   1701.12292
   8452,   2364.63037,   1700.14465
   8453,   2365.63037,   1701.12292
   8454,   2362.63037,   1700.14465
   8455,   2363.63037,   1699.16638
   8456,   2365.63037,   1699.16638
   8457,   2366.13037,   1775.18811
   8458,   2365.63037,   1774.18811
   8459,   2365.63037,   1776.18811
   8460,   2493.63037,   1787.18811
   8461,   2494.63037,   1786.18811
   8462,   2495.63037,   1787.18811
   8463,   2492.63037,   1786.18811
   8464,   2493.63037,   1785.18811
   8465,   2494.63037,   1784.18811
   8466,   2495.63037,   1785.18811
   8467,   2492.63037,   1784.18811
   8468,   2493.63037,   1783.18811
   8469,   2494.63037,   1782.18811
   8470,   2495.63037,   1783.18811
   8471,   2492.63037,   1782.18811
   8472,   2493.63037,   1781.18811
   8473,   2494.63037,   1780.18811
   8474,   2495.63037,   1781.18811
   8475,   2492.63037,   1780.18811
   8476,   2493.63037,   1779.18811
   8477,   2494.63037,   1778.18811
   8478,   2495.63037,   1779.18811
   8479,   2492.63037,   1778.18811
   8480,   2493.63037,   1777.18811
   8481,   2494.63037,   1776.18811
   8482,   2495.63037,   1777.18811
   8483,   2492.63037,   1776.18811
   8484,   2493.63037,   1775.18811
   8485,   2494.63037,   1774.18811
   8486,   2495.63037,   1775.18811
   8487,   2492.63037,   1774.18811
   8488,   2493.63037,   1773.18811
   8489,   2494.63037,   1772.18811
   8490,   2495.63037,   1773.18811
   8491,   2492.63037,   1772.18811
   8492,   2493.63037,   1771.18811
   8493,   2494.63037,   1770.18811
   8494,   2495.63037,   1771.18811
   8495,   2492.63037,   1770.18811
   8496,   2493.63037,   1769.18811
   8497,   2494.63037,   1768.18811
   8498,   2495.63037,   1769.18811
   8499,   2492.63037,   1768.18811
   8500,   2493.63037,   1767.18811
   8501,   2494.63037,   1766.18811
   8502,   2495.63037,   1767.18811
   8503,   2492.63037,   1766.18811
   8504,   2493.63037,   1765.18811
   8505,   2494.63037,   1764.18811
   8506,   2495.63037,   1765.18811
   8507,   2492.63037,   1764.18811
   8508,   2493.63037,   1763.18811
   8509,   2494.63037,   1762.18811
   8510,   2495.63037,   1763.18811
   8511,   2492.63037,   1762.18811
   8512,   2493.63037,   1761.18811
   8513,   2494.63037,   1760.18811
   8514,   2495.63037,   1761.18811
   8515,   2492.63037,   1760.18811
   8516,   2493.63037,   1759.18811
   8517,   2494.63037,   1758.18811
   8518,   2495.63037,   1759.18811
   8519,   2492.63037,   1758.18811
   8520,   2493.63037,   1757.18811
   8521,   2494.63037,   1756.18811
   8522,   2495.63037,   1757.18811
   8523,   2492.63037,   1756.18811
   8524,   2493.63037,   1755.18811
   8525,   2494.63037,   1754.18811
   8526,   2495.63037,   1755.18811
   8527,   2492.63037,   1754.18811
   8528,   2493.63037,   1753.18811
   8529,   2494.63037,   1752.18811
   8530,   2495.63037,   1753.18811
   8531,   2492.63037,   1752.18811
   8532,   2493.63037,   1751.18811
   8533,   2494.63037,   1750.18811
   8534,   2495.63037,   1751.18811
   8535,   2492.63037,   1750.18811
   8536,   2493.63037,   1749.18811
   8537,   2494.63037,   1748.18811
   8538,   2495.63037,   1749.18811
   8539,   2492.63037,   1748.18811
   8540,   2493.63037,   1747.18811
   8541,   2494.63037,   1746.18811
   8542,   2495.63037,   1747.18811
   8543,   2492.63037,   1746.18811
   8544,   2493.63037,   1745.18811
   8545,   2494.63037,   1744.18811
   8546,   2495.63037,   1745.18811
   8547,   2492.63037,   1744.18811
   8548,   2493.63037,   1743.18811
   8549,   2494.63037,   1742.18811
   8550,   2495.63037,   1743.18811
   8551,   2492.63037,   1742.18811
   8552,   2493.63037,   1741.18811
   8553,   2494.63037,   1740.18811
   8554,   2495.63037,   1741.18811
   8555,   2492.63037,   1740.18811
   8556,   2393.63037,   1775.18811
   8557,   2394.63037,   1776.18811
   8558,   2394.63037,   1774.18811
   8559,   2364.63037,   1747.18811
   8560,   2363.63037,   1746.18811
   8561,   2364.63037,   1745.18811
   8562,   2365.63037,   1746.18811
   8563,   2362.63037,   1747.18811
   8564,   2362.63037,   1745.18811
   8565,   2363.63037,   1744.18811
   8566,   2365.63037,   1744.18811
   8567,   2370.63037,   1769.18811
   8568,   2369.63037,   1770.18811
   8569,   2368.63037,   1769.18811
   8570,   2370.63037,   1771.18811
   8571,   2368.63037,   1771.18811
   8572,   2367.63037,   1770.18811
   8573,   2366.63037,   1769.18811
   8574,   2366.63037,   1771.18811
   8575,   2362.63037,   1773.18811
   8576,   2363.63037,   1774.18811
   8577,   2362.63037,   1775.18811
   8578,   2364.63037,   1773.18811
   8579,   2364.63037,   1775.18811
   8580,   2363.63037,   1776.18811
   8581,   2493.63037,   1739.18811
   8582,   2494.63037,   1738.18811
   8583,   2495.63037,   1739.18811
   8584,   2492.63037,   1738.18811
   8585,   2493.63037,   1737.18811
   8586,   2494.63037,   1736.18811
   8587,   2495.63037,   1737.18811
   8588,   2492.63037,   1736.18811
   8589,   2493.63037,   1735.18811
   8590,   2494.63037,   1734.18811
   8591,   2495.63037,   1735.18811
   8592,   2492.63037,   1734.18811
   8593,   2493.63037,   1733.18811
   8594,   2494.63037,   1732.18811
   8595,   2495.63037,   1733.18811
   8596,   2492.63037,   1732.18811
   8597,   2493.63037,   1731.18811
   8598,   2494.63037,   1730.18811
   8599,   2495.63037,   1731.18811
   8600,   2492.63037,   1730.18811
   8601,   2395.63037,   1774.18811
   8602,   2395.13037,   1775.18811
   8603,   2395.63037,   1776.18811
   8604,   2371.63037,   1770.18811
   8605,   2372.63037,   1771.18811
   8606,   2372.63037,   1769.18811
   8607,   2373.63037,   1770.18811
   8608,   2374.63037,   1771.18811
   8609,   2374.63037,   1769.18811
   8610,   2364.63037,   1748.18811
   8611,   2363.63037,   1747.68811
   8612,   2365.63037,   1747.68811
   8613,   2362.63037,   1748.18811
   8614,   2366.13037,   1770.18811
   8615,   2365.63037,   1769.18811
   8616,   2365.63037,   1771.18811
   8617,   2363.63037,   1772.68811
   8618,   2364.63037,   1772.18811
   8619,   2362.63037,   1772.18811
   8620,   2493.63037,   1729.18811
   8621,   2494.63037,   1728.18811
   8622,   2495.63037,   1729.18811
   8623,   2492.63037,   1728.18811
   8624,   2493.63037,   1727.18811
   8625,   2494.63037,   1726.18811
   8626,   2495.63037,   1727.18811
   8627,   2492.63037,   1726.18811
   8628,   2493.63037,   1725.18811
   8629,   2494.63037,   1724.18811
   8630,   2495.63037,   1725.18811
   8631,   2492.63037,   1724.18811
   8632,   2493.63037,   1723.18811
   8633,   2494.63037,   1722.18811
   8634,   2495.63037,   1723.18811
   8635,   2492.63037,   1722.18811
   8636,   2493.63037,   1721.18811
   8637,   2494.63037,   1720.18811
   8638,   2495.63037,   1721.18811
   8639,   2492.63037,   1720.18811
   8640,   2493.63037,   1719.18811
   8641,   2494.63037,   1718.18811
   8642,   2495.63037,   1719.18811
   8643,   2492.63037,   1718.18811
   8644,   2493.63037,   1717.18811
   8645,   2494.63037,   1716.18811
   8646,   2495.63037,   1717.18811
   8647,   2492.63037,   1716.18811
   8648,   2493.63037,   1715.18811
   8649,   2494.63037,   1714.18811
   8650,   2495.63037,   1715.18811
   8651,   2492.63037,   1714.18811
   8652,   2493.63037,   1713.18811
   8653,   2494.63037,   1712.18811
   8654,   2495.63037,   1713.18811
   8655,   2492.63037,   1712.18811
   8656,   2493.63037,   1711.18811
   8657,   2494.63037,   1710.18811
   8658,   2495.63037,   1711.18811
   8659,   2492.63037,   1710.18811
   8660,   2493.63037,   1709.18811
   8661,   2494.63037,   1708.18811
   8662,   2495.63037,   1709.18811
   8663,   2492.63037,   1708.18811
   8664,   2493.63037,   1707.18811
   8665,   2494.63037,   1706.18811
   8666,   2495.63037,   1707.18811
   8667,   2492.63037,   1706.18811
   8668,   2493.63037,   1705.18811
   8669,   2494.63037,   1704.18811
   8670,   2495.63037,   1705.18811
   8671,   2492.63037,   1704.18811
   8672,   2493.63037,   1703.18811
   8673,   2494.63037,   1702.18811
   8674,   2495.63037,   1703.18811
   8675,   2492.63037,   1702.18811
   8676,   2493.63037,   1701.18811
   8677,   2494.63037,   1700.18811
   8678,   2495.63037,   1701.18811
   8679,   2492.63037,   1700.18811
   8680,   2493.63037,   1699.18811
   8681,   2494.63037,   1698.18811
   8682,   2495.63037,   1699.18811
   8683,   2492.63037,   1698.18811
   8684,   2399.63037,   1774.18811
   8685,   2398.63037,   1775.18811
   8686,   2397.63037,   1774.18811
   8687,   2399.63037,   1776.18811
   8688,   2397.63037,   1776.18811
   8689,   2396.63037,   1775.18811
   8690,   2375.54688,   1770.18811
   8691,   2376.46362,   1771.18811
   8692,   2376.46362,   1769.18811
   8693,   2377.38037,   1770.18811
   8694,   2378.29712,   1771.18811
   8695,   2378.29712,   1769.18811
   8696,   2379.21387,   1770.18811
   8697,   2380.13037,   1771.18811
   8698,   2380.13037,   1769.18811
   8699,   2381.04688,   1770.18811
   8700,   2381.96362,   1771.18811
   8701,   2381.96362,   1769.18811
   8702,   2382.88037,   1770.18811
   8703,   2383.79712,   1771.18811
   8704,   2383.79712,   1769.18811
   8705,   2384.71387,   1770.18811
   8706,   2385.63037,   1771.18811
   8707,   2385.63037,   1769.18811
   8708,   2364.63037,   1752.18811
   8709,   2363.63037,   1751.18811
   8710,   2364.63037,   1750.18811
   8711,   2365.63037,   1751.18811
   8712,   2362.63037,   1752.18811
   8713,   2362.63037,   1750.18811
   8714,   2363.63037,   1749.18811
   8715,   2365.63037,   1749.18811
   8716,   2363.63037,   1771.18811
   8717,   2364.63037,   1770.18811
   8718,   2362.63037,   1770.18811
   8719,   2363.63037,   1769.18811
   8720,   2364.63037,   1768.18811
   8721,   2362.63037,   1768.18811
   8722,   2493.63037,   1697.68811
   8723,   2494.63037,   1697.18811
   8724,   2495.63037,   1697.68811
   8725,   2492.63037,   1697.18811
   8726,   2491.63037,   1693.68811
   8727,   2492.63037,   1693.18811
   8728,   2493.63037,   1693.68811
   8729,   2492.63037,   1694.18811
   8730,   2494.63037,   1693.18811
   8731,   2495.63037,   1693.68811
   8732,   2494.63037,   1694.18811
   8733,   2400.63037,   1774.18811
   8734,   2400.13037,   1775.18811
   8735,   2400.63037,   1776.18811
   8736,   2386.63037,   1770.18811
   8737,   2387.63037,   1771.18811
   8738,   2387.63037,   1769.18811
   8739,   2388.63037,   1770.18811
   8740,   2389.63037,   1771.18811
   8741,   2389.63037,   1769.18811
   8742,   2364.63037,   1753.18811
   8743,   2363.63037,   1752.68811
   8744,   2365.63037,   1752.68811
   8745,   2362.63037,   1753.18811
   8746,   2363.63037,   1767.68811
   8747,   2364.63037,   1767.18811
   8748,   2362.63037,   1767.18811
   8749,   2493.63037,   1696.43811
   8750,   2494.63037,   1695.68811
   8751,   2495.63037,   1696.43811
   8752,   2491.63037,   1696.43811
   8753,   2492.63037,   1695.68811
   8754,   2493.63037,   1694.93811
   8755,   2495.63037,   1694.93811
   8756,   2491.63037,   1694.93811
   8757,   2491.13037,   1694.18811
   8758,   2490.63037,   1693.68811
   8759,   2491.13037,   1693.18811
   8760,   2404.63037,   1774.18811
   8761,   2403.63037,   1775.18811
   8762,   2402.63037,   1774.18811
   8763,   2404.63037,   1776.18811
   8764,   2402.63037,   1776.18811
   8765,   2401.63037,   1775.18811
   8766,   2390.63037,   1770.18811
   8767,   2391.63037,   1771.18811
   8768,   2391.63037,   1769.18811
   8769,   2364.63037,   1757.18811
   8770,   2363.63037,   1756.18811
   8771,   2364.63037,   1755.18811
   8772,   2365.63037,   1756.18811
   8773,   2362.63037,   1757.18811
   8774,   2362.63037,   1755.18811
   8775,   2363.63037,   1754.18811
   8776,   2365.63037,   1754.18811
   8777,   2363.63037,   1766.18811
   8778,   2364.63037,   1765.18811
   8779,   2365.63037,   1766.18811
   8780,   2362.63037,   1765.18811
   8781,   2363.63037,   1764.18811
   8782,   2364.63037,   1763.18811
   8783,   2365.63037,   1764.18811
   8784,   2362.63037,   1763.18811
   8785,   2491.13037,   1695.68811
   8786,   2490.63037,   1694.93811
   8787,   2490.63037,   1696.43811
   8788,   2489.63037,   1694.18811
   8789,   2488.63037,   1693.68811
   8790,   2489.63037,   1693.18811
   8791,   2487.63037,   1694.18811
   8792,   2486.63037,   1693.68811
   8793,   2487.63037,   1693.18811
   8794,   2485.63037,   1694.18811
   8795,   2484.63037,   1693.68811
   8796,   2485.63037,   1693.18811
   8797,   2483.63037,   1694.18811
   8798,   2482.63037,   1693.68811
   8799,   2483.63037,   1693.18811
   8800,   2481.63037,   1694.18811
   8801,   2480.63037,   1693.68811
   8802,   2481.63037,   1693.18811
   8803,   2479.63037,   1694.18811
   8804,   2478.63037,   1693.68811
   8805,   2479.63037,   1693.18811
   8806,   2477.63037,   1694.18811
   8807,   2476.63037,   1693.68811
   8808,   2477.63037,   1693.18811
   8809,   2475.63037,   1694.18811
   8810,   2474.63037,   1693.68811
   8811,   2475.63037,   1693.18811
   8812,   2473.63037,   1694.18811
   8813,   2472.63037,   1693.68811
   8814,   2473.63037,   1693.18811
   8815,   2471.63037,   1694.18811
   8816,   2470.63037,   1693.68811
   8817,   2471.63037,   1693.18811
   8818,   2405.63037,   1774.18811
   8819,   2405.13037,   1775.18811
   8820,   2405.63037,   1776.18811
   8821,   2392.13037,   1770.18811
   8822,   2392.63037,   1771.18811
   8823,   2392.63037,   1769.18811
   8824,   2363.63037,   1757.68811
   8825,   2362.63037,   1758.18811
   8826,   2365.63037,   1757.68811
   8827,   2364.63037,   1758.18811
   8828,   2363.63037,   1762.68811
   8829,   2364.63037,   1762.18811
   8830,   2362.63037,   1762.18811
   8831,   2366.63037,   1764.18811
   8832,   2366.13037,   1765.18811
   8833,   2366.63037,   1766.18811
   8834,   2489.63037,   1695.68811
   8835,   2488.63037,   1694.93811
   8836,   2488.63037,   1696.43811
   8837,   2487.63037,   1695.68811
   8838,   2486.63037,   1694.93811
   8839,   2486.63037,   1696.43811
   8840,   2485.63037,   1695.68811
   8841,   2484.63037,   1694.93811
   8842,   2484.63037,   1696.43811
   8843,   2483.63037,   1695.68811
   8844,   2482.63037,   1694.93811
   8845,   2482.63037,   1696.43811
   8846,   2481.63037,   1695.68811
   8847,   2480.63037,   1694.93811
   8848,   2480.63037,   1696.43811
   8849,   2479.63037,   1695.68811
   8850,   2478.63037,   1694.93811
   8851,   2478.63037,   1696.43811
   8852,   2477.63037,   1695.68811
   8853,   2476.63037,   1694.93811
   8854,   2476.63037,   1696.43811
   8855,   2475.63037,   1695.68811
   8856,   2474.63037,   1694.93811
   8857,   2474.63037,   1696.43811
   8858,   2473.63037,   1695.68811
   8859,   2472.63037,   1694.93811
   8860,   2472.63037,   1696.43811
   8861,   2471.63037,   1695.68811
   8862,   2470.63037,   1694.93811
   8863,   2470.63037,   1696.43811
   8864,   2470.13037,   1694.18811
   8865,   2469.63037,   1693.68811
   8866,   2470.13037,   1693.18811
   8867,   2409.63037,   1774.18811
   8868,   2408.63037,   1775.18811
   8869,   2407.63037,   1774.18811
   8870,   2409.63037,   1776.18811
   8871,   2407.63037,   1776.18811
   8872,   2406.63037,   1775.18811
   8873,   2393.63037,   1770.18811
   8874,   2394.63037,   1771.18811
   8875,   2394.63037,   1769.18811
   8876,   2363.63037,   1761.18811
   8877,   2364.63037,   1760.18811
   8878,   2365.63037,   1761.18811
   8879,   2362.63037,   1760.18811
   8880,   2363.63037,   1759.18811
   8881,   2365.63037,   1759.18811
   8882,   2370.63037,   1764.18811
   8883,   2369.63037,   1765.18811
   8884,   2368.63037,   1764.18811
   8885,   2370.63037,   1766.18811
   8886,   2368.63037,   1766.18811
   8887,   2367.63037,   1765.18811
   8888,   2470.13037,   1695.68811
   8889,   2469.63037,   1694.93811
   8890,   2469.63037,   1696.43811
   8891,   2468.63037,   1694.18811
   8892,   2467.63037,   1693.68811
   8893,   2468.63037,   1693.18811
   8894,   2466.63037,   1694.18811
   8895,   2465.63037,   1693.68811
   8896,   2466.63037,   1693.18811
   8897,   2410.63037,   1774.18811
   8898,   2410.13037,   1775.18811
   8899,   2410.63037,   1776.18811
   8900,   2395.63037,   1769.18811
   8901,   2395.13037,   1770.18811
   8902,   2395.63037,   1771.18811
   8903,   2366.63037,   1759.18811
   8904,   2366.13037,   1760.18811
   8905,   2366.13037,   1758.18811
   8906,   2366.63037,   1761.18811
   8907,   2371.63037,   1765.18811
   8908,   2372.63037,   1766.18811
   8909,   2372.63037,   1764.18811
   8910,   2373.63037,   1765.18811
   8911,   2374.63037,   1766.18811
   8912,   2374.63037,   1764.18811
   8913,   2467.63037,   1694.93811
   8914,   2466.63037,   1695.68811
   8915,   2465.63037,   1694.93811
   8916,   2468.63037,   1695.68811
   8917,   2467.63037,   1696.43811
   8918,   2466.63037,   1697.18811
   8919,   2465.63037,   1696.43811
   8920,   2468.63037,   1697.18811
   8921,   2414.63037,   1774.18811
   8922,   2413.63037,   1775.18811
   8923,   2412.63037,   1774.18811
   8924,   2414.63037,   1776.18811
   8925,   2412.63037,   1776.18811
   8926,   2411.63037,   1775.18811
   8927,   2399.63037,   1769.18811
   8928,   2398.63037,   1770.18811
   8929,   2397.63037,   1769.18811
   8930,   2399.63037,   1771.18811
   8931,   2397.63037,   1771.18811
   8932,   2396.63037,   1770.18811
   8933,   2370.63037,   1759.18811
   8934,   2369.63037,   1760.18811
   8935,   2368.63037,   1759.18811
   8936,   2369.63037,   1758.18811
   8937,   2370.63037,   1761.18811
   8938,   2368.63037,   1761.18811
   8939,   2367.63037,   1760.18811
   8940,   2367.63037,   1758.18811
   8941,   2375.54688,   1765.18811
   8942,   2376.46362,   1766.18811
   8943,   2376.46362,   1764.18811
   8944,   2377.38037,   1765.18811
   8945,   2378.29712,   1766.18811
   8946,   2378.29712,   1764.18811
   8947,   2379.21387,   1765.18811
   8948,   2380.13037,   1766.18811
   8949,   2380.13037,   1764.18811
   8950,   2381.04688,   1765.18811
   8951,   2381.96362,   1766.18811
   8952,   2381.96362,   1764.18811
   8953,   2382.88037,   1765.18811
   8954,   2383.79712,   1766.18811
   8955,   2383.79712,   1764.18811
   8956,   2384.71387,   1765.18811
   8957,   2385.63037,   1766.18811
   8958,   2385.63037,   1764.18811
   8959,   2468.63037,   1698.18811
   8960,   2467.63037,   1697.68811
   8961,   2466.63037,   1698.18811
   8962,   2465.63037,   1697.68811
   8963,   2415.63037,   1774.18811
   8964,   2415.13037,   1775.18811
   8965,   2415.63037,   1776.18811
   8966,   2400.63037,   1769.18811
   8967,   2400.13037,   1770.18811
   8968,   2400.63037,   1771.18811
   8969,   2371.63037,   1760.18811
   8970,   2372.63037,   1761.18811
   8971,   2371.63037,   1758.18811
   8972,   2372.63037,   1759.18811
   8973,   2373.63037,   1760.18811
   8974,   2374.63037,   1761.18811
   8975,   2373.63037,   1758.18811
   8976,   2374.63037,   1759.18811
   8977,   2386.63037,   1765.18811
   8978,   2387.63037,   1766.18811
   8979,   2387.63037,   1764.18811
   8980,   2388.63037,   1765.18811
   8981,   2389.63037,   1766.18811
   8982,   2389.63037,   1764.18811
   8983,   2468.63037,   1738.18811
   8984,   2467.63037,   1737.18811
   8985,   2468.63037,   1736.18811
   8986,   2466.63037,   1738.18811
   8987,   2465.63037,   1737.18811
   8988,   2466.63037,   1736.18811
   8989,   2467.63037,   1735.18811
   8990,   2468.63037,   1734.18811
   8991,   2465.63037,   1735.18811
   8992,   2466.63037,   1734.18811
   8993,   2467.63037,   1733.18811
   8994,   2468.63037,   1732.18811
   8995,   2465.63037,   1733.18811
   8996,   2466.63037,   1732.18811
   8997,   2467.63037,   1731.18811
   8998,   2468.63037,   1730.18811
   8999,   2465.63037,   1731.18811
   9000,   2466.63037,   1730.18811
   9001,   2467.63037,   1729.18811
   9002,   2468.63037,   1728.18811
   9003,   2465.63037,   1729.18811
   9004,   2466.63037,   1728.18811
   9005,   2467.63037,   1727.18811
   9006,   2468.63037,   1726.18811
   9007,   2465.63037,   1727.18811
   9008,   2466.63037,   1726.18811
   9009,   2467.63037,   1725.18811
   9010,   2468.63037,   1724.18811
   9011,   2465.63037,   1725.18811
   9012,   2466.63037,   1724.18811
   9013,   2467.63037,   1723.18811
   9014,   2468.63037,   1722.18811
   9015,   2465.63037,   1723.18811
   9016,   2466.63037,   1722.18811
   9017,   2467.63037,   1721.18811
   9018,   2468.63037,   1720.18811
   9019,   2465.63037,   1721.18811
   9020,   2466.63037,   1720.18811
   9021,   2467.63037,   1719.18811
   9022,   2468.63037,   1718.18811
   9023,   2465.63037,   1719.18811
   9024,   2466.63037,   1718.18811
   9025,   2467.63037,   1717.18811
   9026,   2468.63037,   1716.18811
   9027,   2465.63037,   1717.18811
   9028,   2466.63037,   1716.18811
   9029,   2467.63037,   1715.18811
   9030,   2468.63037,   1714.18811
   9031,   2465.63037,   1715.18811
   9032,   2466.63037,   1714.18811
   9033,   2467.63037,   1713.18811
   9034,   2468.63037,   1712.18811
   9035,   2465.63037,   1713.18811
   9036,   2466.63037,   1712.18811
   9037,   2467.63037,   1711.18811
   9038,   2468.63037,   1710.18811
   9039,   2465.63037,   1711.18811
   9040,   2466.63037,   1710.18811
   9041,   2467.63037,   1709.18811
   9042,   2468.63037,   1708.18811
   9043,   2465.63037,   1709.18811
   9044,   2466.63037,   1708.18811
   9045,   2467.63037,   1707.18811
   9046,   2468.63037,   1706.18811
   9047,   2465.63037,   1707.18811
   9048,   2466.63037,   1706.18811
   9049,   2467.63037,   1705.18811
   9050,   2468.63037,   1704.18811
   9051,   2465.63037,   1705.18811
   9052,   2466.63037,   1704.18811
   9053,   2467.63037,   1703.18811
   9054,   2468.63037,   1702.18811
   9055,   2465.63037,   1703.18811
   9056,   2466.63037,   1702.18811
   9057,   2467.63037,   1701.18811
   9058,   2468.63037,   1700.18811
   9059,   2465.63037,   1701.18811
   9060,   2466.63037,   1700.18811
   9061,   2467.63037,   1699.18811
   9062,   2465.63037,   1699.18811
   9063,   2419.63037,   1774.18811
   9064,   2418.63037,   1775.18811
   9065,   2417.63037,   1774.18811
   9066,   2419.63037,   1776.18811
   9067,   2417.63037,   1776.18811
   9068,   2416.63037,   1775.18811
   9069,   2404.63037,   1769.18811
   9070,   2403.63037,   1770.18811
   9071,   2402.63037,   1769.18811
   9072,   2404.63037,   1771.18811
   9073,   2402.63037,   1771.18811
   9074,   2401.63037,   1770.18811
   9075,   2375.54688,   1760.18811
   9076,   2376.46362,   1761.18811
   9077,   2375.54712,   1758.18811
   9078,   2376.46362,   1759.18811
   9079,   2377.38037,   1760.18811
   9080,   2378.29712,   1761.18811
   9081,   2377.38037,   1758.18811
   9082,   2378.29712,   1759.18811
   9083,   2379.21387,   1760.18811
   9084,   2380.13037,   1761.18811
   9085,   2379.21387,   1758.18811
   9086,   2380.13037,   1759.18811
   9087,   2381.04688,   1760.18811
   9088,   2381.96362,   1761.18811
   9089,   2381.04688,   1758.18811
   9090,   2381.96362,   1759.18811
   9091,   2382.88037,   1760.18811
   9092,   2383.79712,   1761.18811
   9093,   2382.88037,   1758.18811
   9094,   2383.79712,   1759.18811
   9095,   2384.71387,   1760.18811
   9096,   2385.63037,   1761.18811
   9097,   2384.71387,   1758.18811
   9098,   2385.63037,   1759.18811
   9099,   2390.63037,   1765.18811
   9100,   2391.63037,   1766.18811
   9101,   2391.63037,   1764.18811
   9102,   2467.63037,   1739.18811
   9103,   2466.63037,   1740.18811
   9104,   2465.63037,   1739.18811
   9105,   2468.63037,   1740.18811
   9106,   2467.63037,   1741.18811
   9107,   2466.63037,   1742.18811
   9108,   2465.63037,   1741.18811
   9109,   2468.63037,   1742.18811
   9110,   2420.63037,   1774.18811
   9111,   2420.13037,   1775.18811
   9112,   2420.63037,   1776.18811
   9113,   2405.63037,   1769.18811
   9114,   2405.13037,   1770.18811
   9115,   2405.63037,   1771.18811
   9116,   2386.63037,   1760.18811
   9117,   2387.63037,   1761.18811
   9118,   2386.63037,   1758.18811
   9119,   2387.63037,   1759.18811
   9120,   2388.63037,   1760.18811
   9121,   2389.63037,   1761.18811
   9122,   2388.63037,   1758.18811
   9123,   2389.63037,   1759.18811
   9124,   2392.13037,   1765.18811
   9125,   2392.63037,   1766.18811
   9126,   2392.63037,   1764.18811
   9127,   2468.63037,   1743.18811
   9128,   2467.63037,   1742.68811
   9129,   2466.63037,   1743.18811
   9130,   2465.63037,   1742.68811
   9131,   2424.63037,   1774.18811
   9132,   2423.63037,   1775.18811
   9133,   2422.63037,   1774.18811
   9134,   2424.63037,   1776.18811
   9135,   2422.63037,   1776.18811
   9136,   2421.63037,   1775.18811
   9137,   2409.63037,   1769.18811
   9138,   2408.63037,   1770.18811
   9139,   2407.63037,   1769.18811
   9140,   2409.63037,   1771.18811
   9141,   2407.63037,   1771.18811
   9142,   2406.63037,   1770.18811
   9143,   2390.63037,   1760.18811
   9144,   2391.63037,   1761.18811
   9145,   2390.63037,   1758.18811
   9146,   2391.63037,   1759.18811
   9147,   2393.63037,   1765.18811
   9148,   2394.63037,   1766.18811
   9149,   2394.63037,   1764.18811
   9150,   2465.63037,   1746.18811
   9151,   2466.63037,   1745.18811
   9152,   2467.63037,   1746.18811
   9153,   2465.63037,   1744.18811
   9154,   2467.63037,   1744.18811
   9155,   2468.63037,   1745.18811
   9156,   2425.63037,   1774.18811
   9157,   2425.13037,   1775.18811
   9158,   2425.63037,   1776.18811
   9159,   2410.63037,   1769.18811
   9160,   2410.13037,   1770.18811
   9161,   2410.63037,   1771.18811
   9162,   2392.13037,   1760.18811
   9163,   2392.63037,   1761.18811
   9164,   2392.13037,   1758.18811
   9165,   2392.63037,   1759.18811
   9166,   2395.63037,   1764.18811
   9167,   2395.13037,   1765.18811
   9168,   2395.63037,   1766.18811
   9169,   2465.13037,   1745.18811
   9170,   2464.63037,   1744.18811
   9171,   2465.13037,   1743.18811
   9172,   2464.63037,   1746.18811
   9173,   2426.63037,   1773.18811
   9174,   2427.63037,   1774.18811
   9175,   2426.63037,   1775.18811
   9176,   2428.63037,   1773.18811
   9177,   2428.63037,   1775.18811
   9178,   2427.63037,   1776.18811
   9179,   2414.63037,   1769.18811
   9180,   2413.63037,   1770.18811
   9181,   2412.63037,   1769.18811
   9182,   2414.63037,   1771.18811
   9183,   2412.63037,   1771.18811
   9184,   2411.63037,   1770.18811
   9185,   2393.63037,   1760.18811
   9186,   2394.63037,   1761.18811
   9187,   2393.63037,   1758.18811
   9188,   2394.63037,   1759.18811
   9189,   2399.63037,   1764.18811
   9190,   2398.63037,   1765.18811
   9191,   2397.63037,   1764.18811
   9192,   2399.63037,   1766.18811
   9193,   2397.63037,   1766.18811
   9194,   2396.63037,   1765.18811
   9195,   2461.63037,   1746.18811
   9196,   2462.38037,   1745.18811
   9197,   2463.13037,   1746.18811
   9198,   2461.63037,   1744.18811
   9199,   2462.38037,   1743.18811
   9200,   2463.13037,   1744.18811
   9201,   2463.88037,   1745.18811
   9202,   2463.88037,   1743.18811
   9203,   2426.63037,   1772.18811
   9204,   2427.63037,   1772.68811
   9205,   2428.63037,   1772.18811
   9206,   2415.63037,   1769.18811
   9207,   2415.13037,   1770.18811
   9208,   2415.63037,   1771.18811
   9209,   2395.63037,   1759.18811
   9210,   2395.13037,   1760.18811
   9211,   2395.13037,   1758.18811
   9212,   2395.63037,   1761.18811
   9213,   2400.63037,   1764.18811
   9214,   2400.13037,   1765.18811
   9215,   2400.63037,   1766.18811
   9216,   2461.13037,   1745.18811
   9217,   2460.63037,   1744.18811
   9218,   2461.13037,   1743.18811
   9219,   2461.13037,   1747.18811
   9220,   2460.63037,   1746.18811
   9221,   2426.63037,   1768.18811
   9222,   2427.63037,   1769.18811
   9223,   2426.63037,   1770.18811
   9224,   2428.63037,   1768.18811
   9225,   2428.63037,   1770.18811
   9226,   2427.63037,   1771.18811
   9227,   2419.63037,   1769.18811
   9228,   2418.63037,   1770.18811
   9229,   2417.63037,   1769.18811
   9230,   2419.63037,   1771.18811
   9231,   2417.63037,   1771.18811
   9232,   2416.63037,   1770.18811
   9233,   2399.63037,   1759.18811
   9234,   2398.63037,   1760.18811
   9235,   2397.63037,   1759.18811
   9236,   2398.63037,   1758.18811
   9237,   2399.63037,   1761.18811
   9238,   2397.63037,   1761.18811
   9239,   2396.63037,   1760.18811
   9240,   2396.63037,   1758.18811
   9241,   2404.63037,   1764.18811
   9242,   2403.63037,   1765.18811
   9243,   2402.63037,   1764.18811
   9244,   2404.63037,   1766.18811
   9245,   2402.63037,   1766.18811
   9246,   2401.63037,   1765.18811
   9247,   2456.63037,   1746.18811
   9248,   2457.63037,   1745.18811
   9249,   2458.63037,   1746.18811
   9250,   2456.63037,   1744.18811
   9251,   2457.63037,   1743.18811
   9252,   2458.63037,   1744.18811
   9253,   2459.63037,   1745.18811
   9254,   2459.63037,   1743.18811
   9255,   2426.63037,   1767.18811
   9256,   2427.63037,   1767.68811
   9257,   2428.63037,   1767.18811
   9258,   2420.63037,   1769.18811
   9259,   2420.13037,   1770.18811
   9260,   2420.63037,   1771.18811
   9261,   2400.63037,   1759.18811
   9262,   2400.13037,   1760.18811
   9263,   2400.13037,   1758.18811
   9264,   2400.63037,   1761.18811
   9265,   2405.63037,   1764.18811
   9266,   2405.13037,   1765.18811
   9267,   2405.63037,   1766.18811
   9268,   2456.13037,   1745.18811
   9269,   2455.63037,   1744.18811
   9270,   2456.13037,   1743.18811
   9271,   2455.63037,   1746.18811
   9272,   2426.63037,   1763.18811
   9273,   2427.63037,   1764.18811
   9274,   2426.63037,   1765.18811
   9275,   2428.63037,   1763.18811
   9276,   2428.63037,   1765.18811
   9277,   2427.63037,   1766.18811
   9278,   2421.63037,   1768.18811
   9279,   2422.63037,   1769.18811
   9280,   2421.63037,   1770.18811
   9281,   2423.63037,   1768.18811
   9282,   2423.63037,   1770.18811
   9283,   2422.63037,   1771.18811
   9284,   2404.63037,   1759.18811
   9285,   2403.63037,   1760.18811
   9286,   2402.63037,   1759.18811
   9287,   2403.63037,   1758.18811
   9288,   2404.63037,   1761.18811
   9289,   2402.63037,   1761.18811
   9290,   2401.63037,   1760.18811
   9291,   2401.63037,   1758.18811
   9292,   2409.63037,   1764.18811
   9293,   2408.63037,   1765.18811
   9294,   2407.63037,   1764.18811
   9295,   2409.63037,   1766.18811
   9296,   2407.63037,   1766.18811
   9297,   2406.63037,   1765.18811
   9298,   2454.63037,   1745.18811
   9299,   2453.63037,   1744.18811
   9300,   2454.63037,   1743.18811
   9301,   2453.63037,   1746.18811
   9302,   2452.63037,   1745.18811
   9303,   2452.63037,   1743.18811
   9304,   2426.63037,   1762.18811
   9305,   2427.63037,   1762.68811
   9306,   2428.63037,   1762.18811
   9307,   2421.63037,   1767.18811
   9308,   2422.63037,   1767.68811
   9309,   2423.63037,   1767.18811
   9310,   2405.63037,   1759.18811
   9311,   2405.13037,   1760.18811
   9312,   2405.13037,   1758.18811
   9313,   2405.63037,   1761.18811
   9314,   2410.63037,   1764.18811
   9315,   2410.13037,   1765.18811
   9316,   2410.63037,   1766.18811
   9317,   2452.63037,   1742.18811
   9318,   2453.63037,   1742.68811
   9319,   2454.63037,   1742.18811
   9320,   2455.63037,   1742.68811
   9321,   2426.63037,   1758.18811
   9322,   2427.63037,   1759.18811
   9323,   2426.63037,   1760.18811
   9324,   2428.63037,   1758.18811
   9325,   2428.63037,   1760.18811
   9326,   2427.63037,   1761.18811
   9327,   2421.63037,   1763.18811
   9328,   2422.63037,   1764.18811
   9329,   2421.63037,   1765.18811
   9330,   2423.63037,   1763.18811
   9331,   2423.63037,   1765.18811
   9332,   2422.63037,   1766.18811
   9333,   2409.63037,   1759.18811
   9334,   2408.63037,   1760.18811
   9335,   2407.63037,   1759.18811
   9336,   2408.63037,   1758.18811
   9337,   2409.63037,   1761.18811
   9338,   2407.63037,   1761.18811
   9339,   2406.63037,   1760.18811
   9340,   2406.63037,   1758.18811
   9341,   2414.63037,   1764.18811
   9342,   2413.63037,   1765.18811
   9343,   2412.63037,   1764.18811
   9344,   2414.63037,   1766.18811
   9345,   2412.63037,   1766.18811
   9346,   2411.63037,   1765.18811
   9347,   2453.63037,   1741.18811
   9348,   2454.63037,   1740.18811
   9349,   2455.63037,   1741.18811
   9350,   2452.63037,   1740.18811
   9351,   2453.63037,   1739.18811
   9352,   2454.63037,   1738.18811
   9353,   2455.63037,   1739.18811
   9354,   2452.63037,   1738.18811
   9355,   2426.63037,   1757.18811
   9356,   2427.63037,   1757.68811
   9357,   2428.63037,   1757.18811
   9358,   2421.63037,   1762.18811
   9359,   2422.63037,   1762.68811
   9360,   2423.63037,   1762.18811
   9361,   2410.63037,   1759.18811
   9362,   2410.13037,   1760.18811
   9363,   2410.13037,   1758.18811
   9364,   2410.63037,   1761.18811
   9365,   2415.63037,   1764.18811
   9366,   2415.13037,   1765.18811
   9367,   2415.63037,   1766.18811
   9368,   2452.63037,   1698.18811
   9369,   2453.63037,   1699.18811
   9370,   2452.63037,   1700.18811
   9371,   2454.63037,   1698.18811
   9372,   2455.63037,   1699.18811
   9373,   2454.63037,   1700.18811
   9374,   2453.63037,   1701.18811
   9375,   2452.63037,   1702.18811
   9376,   2455.63037,   1701.18811
   9377,   2454.63037,   1702.18811
   9378,   2453.63037,   1703.18811
   9379,   2452.63037,   1704.18811
   9380,   2455.63037,   1703.18811
   9381,   2454.63037,   1704.18811
   9382,   2453.63037,   1705.18811
   9383,   2452.63037,   1706.18811
   9384,   2455.63037,   1705.18811
   9385,   2454.63037,   1706.18811
   9386,   2453.63037,   1707.18811
   9387,   2452.63037,   1708.18811
   9388,   2455.63037,   1707.18811
   9389,   2454.63037,   1708.18811
   9390,   2453.63037,   1709.18811
   9391,   2452.63037,   1710.18811
   9392,   2455.63037,   1709.18811
   9393,   2454.63037,   1710.18811
   9394,   2453.63037,   1711.18811
   9395,   2452.63037,   1712.18811
   9396,   2455.63037,   1711.18811
   9397,   2454.63037,   1712.18811
   9398,   2453.63037,   1713.18811
   9399,   2452.63037,   1714.18811
   9400,   2455.63037,   1713.18811
   9401,   2454.63037,   1714.18811
   9402,   2453.63037,   1715.18811
   9403,   2452.63037,   1716.18811
   9404,   2455.63037,   1715.18811
   9405,   2454.63037,   1716.18811
   9406,   2453.63037,   1717.18811
   9407,   2452.63037,   1718.18811
   9408,   2455.63037,   1717.18811
   9409,   2454.63037,   1718.18811
   9410,   2453.63037,   1719.18811
   9411,   2452.63037,   1720.18811
   9412,   2455.63037,   1719.18811
   9413,   2454.63037,   1720.18811
   9414,   2453.63037,   1721.18811
   9415,   2452.63037,   1722.18811
   9416,   2455.63037,   1721.18811
   9417,   2454.63037,   1722.18811
   9418,   2453.63037,   1723.18811
   9419,   2452.63037,   1724.18811
   9420,   2455.63037,   1723.18811
   9421,   2454.63037,   1724.18811
   9422,   2453.63037,   1725.18811
   9423,   2452.63037,   1726.18811
   9424,   2455.63037,   1725.18811
   9425,   2454.63037,   1726.18811
   9426,   2453.63037,   1727.18811
   9427,   2452.63037,   1728.18811
   9428,   2455.63037,   1727.18811
   9429,   2454.63037,   1728.18811
   9430,   2453.63037,   1729.18811
   9431,   2452.63037,   1730.18811
   9432,   2455.63037,   1729.18811
   9433,   2454.63037,   1730.18811
   9434,   2453.63037,   1731.18811
   9435,   2452.63037,   1732.18811
   9436,   2455.63037,   1731.18811
   9437,   2454.63037,   1732.18811
   9438,   2453.63037,   1733.18811
   9439,   2452.63037,   1734.18811
   9440,   2455.63037,   1733.18811
   9441,   2454.63037,   1734.18811
   9442,   2453.63037,   1735.18811
   9443,   2452.63037,   1736.18811
   9444,   2455.63037,   1735.18811
   9445,   2454.63037,   1736.18811
   9446,   2453.63037,   1737.18811
   9447,   2455.63037,   1737.18811
   9448,   2426.63037,   1753.18811
   9449,   2427.63037,   1754.18811
   9450,   2426.63037,   1755.18811
   9451,   2428.63037,   1753.18811
   9452,   2428.63037,   1755.18811
   9453,   2427.63037,   1756.18811
   9454,   2421.63037,   1758.18811
   9455,   2422.63037,   1759.18811
   9456,   2421.63037,   1760.18811
   9457,   2423.63037,   1758.18811
   9458,   2423.63037,   1760.18811
   9459,   2422.63037,   1761.18811
   9460,   2411.63037,   1758.18811
   9461,   2412.63037,   1759.18811
   9462,   2411.63037,   1760.18811
   9463,   2413.63037,   1758.18811
   9464,   2413.63037,   1760.18811
   9465,   2412.63037,   1761.18811
   9466,   2416.63037,   1763.18811
   9467,   2417.63037,   1764.18811
   9468,   2416.63037,   1765.18811
   9469,   2418.63037,   1763.18811
   9470,   2418.63037,   1765.18811
   9471,   2417.63037,   1766.18811
   9472,   2453.63037,   1697.68811
   9473,   2454.63037,   1697.18811
   9474,   2455.63037,   1697.68811
   9475,   2452.63037,   1697.18811
   9476,   2426.63037,   1752.18811
   9477,   2427.63037,   1752.68811
   9478,   2428.63037,   1752.18811
   9479,   2421.63037,   1757.18811
   9480,   2422.63037,   1757.68811
   9481,   2423.63037,   1757.18811
   9482,   2454.63037,   1694.18811
   9483,   2453.63037,   1693.68811
   9484,   2454.63037,   1693.18811
   9485,   2455.63037,   1693.68811
   9486,   2452.63037,   1694.18811
   9487,   2451.63037,   1693.68811
   9488,   2452.63037,   1693.18811
   9489,   2411.63037,   1757.18811
   9490,   2412.63037,   1757.68811
   9491,   2410.63037,   1757.68811
   9492,   2413.63037,   1757.18811
   9493,   2416.63037,   1762.18811
   9494,   2417.63037,   1762.68811
   9495,   2418.63037,   1762.18811
   9496,   2453.63037,   1694.93811
   9497,   2452.63037,   1695.68811
   9498,   2451.63037,   1694.93811
   9499,   2455.63037,   1694.93811
   9500,   2454.63037,   1695.68811
   9501,   2453.63037,   1696.43811
   9502,   2451.63037,   1696.43811
   9503,   2455.63037,   1696.43811
   9504,   2426.63037,   1748.18811
   9505,   2427.63037,   1749.18811
   9506,   2426.63037,   1750.18811
   9507,   2428.63037,   1748.18811
   9508,   2428.63037,   1750.18811
   9509,   2427.63037,   1751.18811
   9510,   2421.63037,   1753.18811
   9511,   2422.63037,   1754.18811
   9512,   2421.63037,   1755.18811
   9513,   2423.63037,   1753.18811
   9514,   2423.63037,   1755.18811
   9515,   2422.63037,   1756.18811
   9516,   2450.63037,   1693.68811
   9517,   2451.13037,   1693.18811
   9518,   2451.13037,   1694.18811
   9519,   2411.63037,   1753.18811
   9520,   2412.63037,   1754.18811
   9521,   2411.63037,   1755.18811
   9522,   2410.63037,   1754.18811
   9523,   2413.63037,   1753.18811
   9524,   2413.63037,   1755.18811
   9525,   2412.63037,   1756.18811
   9526,   2410.63037,   1756.18811
   9527,   2416.63037,   1758.18811
   9528,   2417.63037,   1759.18811
   9529,   2416.63037,   1760.18811
   9530,   2418.63037,   1758.18811
   9531,   2418.63037,   1760.18811
   9532,   2417.63037,   1761.18811
   9533,   2450.63037,   1696.43811
   9534,   2451.13037,   1695.68811
   9535,   2450.63037,   1694.93811
   9536,   2426.63037,   1747.18811
   9537,   2427.63037,   1747.68811
   9538,   2428.63037,   1747.18811
   9539,   2421.63037,   1752.18811
   9540,   2422.63037,   1752.68811
   9541,   2423.63037,   1752.18811
   9542,   2440.63037,   1693.68811
   9543,   2441.63037,   1693.18811
   9544,   2442.63037,   1693.68811
   9545,   2441.63037,   1694.18811
   9546,   2443.63037,   1693.18811
   9547,   2444.63037,   1693.68811
   9548,   2443.63037,   1694.18811
   9549,   2445.63037,   1693.18811
   9550,   2446.63037,   1693.68811
   9551,   2445.63037,   1694.18811
   9552,   2447.63037,   1693.18811
   9553,   2448.63037,   1693.68811
   9554,   2447.63037,   1694.18811
   9555,   2449.63037,   1693.18811
   9556,   2449.63037,   1694.18811
   9557,   2411.63037,   1752.18811
   9558,   2412.63037,   1752.68811
   9559,   2410.63037,   1752.68811
   9560,   2413.63037,   1752.18811
   9561,   2416.63037,   1757.18811
   9562,   2417.63037,   1757.68811
   9563,   2418.63037,   1757.18811
   9564,   2440.63037,   1696.43811
   9565,   2441.63037,   1695.68811
   9566,   2442.63037,   1696.43811
   9567,   2440.63037,   1694.93811
   9568,   2442.63037,   1694.93811
   9569,   2443.63037,   1695.68811
   9570,   2444.63037,   1696.43811
   9571,   2444.63037,   1694.93811
   9572,   2445.63037,   1695.68811
   9573,   2446.63037,   1696.43811
   9574,   2446.63037,   1694.93811
   9575,   2447.63037,   1695.68811
   9576,   2448.63037,   1696.43811
   9577,   2448.63037,   1694.93811
   9578,   2449.63037,   1695.68811
   9579,   2426.63037,   1743.18811
   9580,   2427.63037,   1744.18811
   9581,   2426.63037,   1745.18811
   9582,   2425.63037,   1744.18811
   9583,   2428.63037,   1743.18811
   9584,   2428.63037,   1745.18811
   9585,   2427.63037,   1746.18811
   9586,   2425.63037,   1746.18811
   9587,   2421.63037,   1748.18811
   9588,   2422.63037,   1749.18811
   9589,   2421.63037,   1750.18811
   9590,   2423.63037,   1748.18811
   9591,   2423.63037,   1750.18811
   9592,   2422.63037,   1751.18811
   9593,   2430.63037,   1693.68811
   9594,   2431.63037,   1693.18811
   9595,   2432.63037,   1693.68811
   9596,   2431.63037,   1694.18811
   9597,   2433.63037,   1693.18811
   9598,   2434.63037,   1693.68811
   9599,   2433.63037,   1694.18811
   9600,   2435.63037,   1693.18811
   9601,   2436.63037,   1693.68811
   9602,   2435.63037,   1694.18811
   9603,   2437.63037,   1693.18811
   9604,   2438.63037,   1693.68811
   9605,   2437.63037,   1694.18811
   9606,   2439.63037,   1693.18811
   9607,   2439.63037,   1694.18811
   9608,   2411.63037,   1748.18811
   9609,   2412.63037,   1749.18811
   9610,   2411.63037,   1750.18811
   9611,   2410.63037,   1749.18811
   9612,   2413.63037,   1748.18811
   9613,   2413.63037,   1750.18811
   9614,   2412.63037,   1751.18811
   9615,   2410.63037,   1751.18811
   9616,   2416.63037,   1753.18811
   9617,   2417.63037,   1754.18811
   9618,   2416.63037,   1755.18811
   9619,   2418.63037,   1753.18811
   9620,   2418.63037,   1755.18811
   9621,   2417.63037,   1756.18811
   9622,   2430.63037,   1696.43811
   9623,   2431.63037,   1695.68811
   9624,   2432.63037,   1696.43811
   9625,   2430.63037,   1694.93811
   9626,   2432.63037,   1694.93811
   9627,   2433.63037,   1695.68811
   9628,   2434.63037,   1696.43811
   9629,   2434.63037,   1694.93811
   9630,   2435.63037,   1695.68811
   9631,   2436.63037,   1696.43811
   9632,   2436.63037,   1694.93811
   9633,   2437.63037,   1695.68811
   9634,   2438.63037,   1696.43811
   9635,   2438.63037,   1694.93811
   9636,   2439.63037,   1695.68811
   9637,   2427.63037,   1742.20984
   9638,   2428.63037,   1741.23157
   9639,   2426.63037,   1741.23157
   9640,   2427.63037,    1740.2533
   9641,   2428.63037,   1739.27502
   9642,   2426.63037,   1739.27502
   9643,   2427.63037,   1738.29675
   9644,   2428.63037,   1737.31848
   9645,   2426.63037,   1737.31848
   9646,   2427.63037,   1736.34033
   9647,   2428.63037,   1735.36206
   9648,   2426.63037,   1735.36206
   9649,   2427.63037,   1734.38379
   9650,   2428.63037,   1733.40552
   9651,   2426.63037,   1733.40552
   9652,   2427.63037,   1732.42725
   9653,   2428.63037,   1731.44897
   9654,   2426.63037,   1731.44897
   9655,   2427.63037,    1730.4707
   9656,   2428.63037,   1729.49243
   9657,   2426.63037,   1729.49243
   9658,   2427.63037,   1728.51416
   9659,   2428.63037,   1727.53589
   9660,   2426.63037,   1727.53589
   9661,   2427.63037,   1726.55762
   9662,   2428.63037,   1725.57947
   9663,   2426.63037,   1725.57947
   9664,   2427.63037,    1724.6012
   9665,   2428.63037,   1723.62292
   9666,   2426.63037,   1723.62292
   9667,   2427.63037,   1722.64465
   9668,   2428.63037,   1721.66638
   9669,   2426.63037,   1721.66638
   9670,   2427.63037,   1720.68811
   9671,   2428.63037,   1719.70984
   9672,   2426.63037,   1719.70984
   9673,   2427.63037,   1718.73157
   9674,   2428.63037,    1717.7533
   9675,   2426.63037,    1717.7533
   9676,   2427.63037,   1716.77502
   9677,   2428.63037,   1715.79675
   9678,   2426.63037,   1715.79675
   9679,   2427.63037,    1714.8186
   9680,   2428.63037,   1713.84033
   9681,   2426.63037,   1713.84033
   9682,   2427.63037,   1712.86206
   9683,   2428.63037,   1711.88379
   9684,   2426.63037,   1711.88379
   9685,   2427.63037,   1710.90552
   9686,   2428.63037,   1709.92725
   9687,   2426.63037,   1709.92725
   9688,   2427.63037,   1708.94897
   9689,   2428.63037,    1707.9707
   9690,   2426.63037,    1707.9707
   9691,   2427.63037,   1706.99243
   9692,   2428.63037,   1706.01416
   9693,   2426.63037,   1706.01416
   9694,   2427.63037,   1705.03589
   9695,   2428.63037,   1704.05762
   9696,   2426.63037,   1704.05762
   9697,   2427.63037,   1703.07935
   9698,   2428.63037,    1702.1012
   9699,   2426.63037,    1702.1012
   9700,   2427.63037,   1701.12292
   9701,   2428.63037,   1700.14465
   9702,   2426.63037,   1700.14465
   9703,   2427.63037,   1699.16638
   9704,   2428.63037,   1698.18811
   9705,   2426.63037,   1698.18811
   9706,   2421.63037,   1747.18811
   9707,   2422.63037,   1747.68811
   9708,   2423.63037,   1747.18811
   9709,   2429.63037,   1693.68811
   9710,   2430.13037,   1693.18811
   9711,   2430.13037,   1694.18811
   9712,   2411.63037,   1747.18811
   9713,   2412.63037,   1747.68811
   9714,   2410.63037,   1747.68811
   9715,   2413.63037,   1747.18811
   9716,   2416.63037,   1752.18811
   9717,   2417.63037,   1752.68811
   9718,   2418.63037,   1752.18811
   9719,   2429.63037,   1696.43811
   9720,   2430.13037,   1695.68811
   9721,   2429.63037,   1694.93811
   9722,   2427.63037,   1697.68811
   9723,   2428.63037,   1697.18811
   9724,   2426.63037,   1697.18811
   9725,   2421.63037,   1743.18811
   9726,   2422.63037,   1744.18811
   9727,   2421.63037,   1745.18811
   9728,   2420.63037,   1744.18811
   9729,   2423.63037,   1743.18811
   9730,   2424.63037,   1744.18811
   9731,   2423.63037,   1745.18811
   9732,   2422.63037,   1746.18811
   9733,   2420.63037,   1746.18811
   9734,   2424.63037,   1746.18811
   9735,   2425.63037,   1693.68811
   9736,   2426.63037,   1693.18811
   9737,   2427.63037,   1693.68811
   9738,   2426.63037,   1694.18811
   9739,   2428.63037,   1693.18811
   9740,   2428.63037,   1694.18811
   9741,   2411.63037,   1743.18811
   9742,   2412.63037,   1744.18811
   9743,   2411.63037,   1745.18811
   9744,   2410.63037,   1744.18811
   9745,   2413.63037,   1743.18811
   9746,   2414.63037,   1744.18811
   9747,   2413.63037,   1745.18811
   9748,   2412.63037,   1746.18811
   9749,   2410.63037,   1746.18811
   9750,   2414.63037,   1746.18811
   9751,   2416.63037,   1748.18811
   9752,   2417.63037,   1749.18811
   9753,   2416.63037,   1750.18811
   9754,   2418.63037,   1748.18811
   9755,   2418.63037,   1750.18811
   9756,   2417.63037,   1751.18811
   9757,   2427.63037,   1696.43811
   9758,   2428.63037,   1695.68811
   9759,   2425.63037,   1696.43811
   9760,   2426.63037,   1695.68811
   9761,   2427.63037,   1694.93811
   9762,   2425.63037,   1694.93811
   9763,   2422.63037,   1742.20984
   9764,   2423.63037,   1741.23157
   9765,   2421.63037,   1741.23157
   9766,   2422.63037,    1740.2533
   9767,   2423.63037,   1739.27502
   9768,   2421.63037,   1739.27502
   9769,   2422.63037,   1738.29675
   9770,   2423.63037,   1737.31848
   9771,   2421.63037,   1737.31848
   9772,   2422.63037,   1736.34033
   9773,   2423.63037,   1735.36206
   9774,   2421.63037,   1735.36206
   9775,   2422.63037,   1734.38379
   9776,   2423.63037,   1733.40552
   9777,   2421.63037,   1733.40552
   9778,   2422.63037,   1732.42725
   9779,   2423.63037,   1731.44897
   9780,   2421.63037,   1731.44897
   9781,   2422.63037,    1730.4707
   9782,   2423.63037,   1729.49243
   9783,   2421.63037,   1729.49243
   9784,   2422.63037,   1728.51416
   9785,   2423.63037,   1727.53589
   9786,   2421.63037,   1727.53589
   9787,   2422.63037,   1726.55762
   9788,   2423.63037,   1725.57947
   9789,   2421.63037,   1725.57947
   9790,   2422.63037,    1724.6012
   9791,   2423.63037,   1723.62292
   9792,   2421.63037,   1723.62292
   9793,   2422.63037,   1722.64465
   9794,   2423.63037,   1721.66638
   9795,   2421.63037,   1721.66638
   9796,   2422.63037,   1720.68811
   9797,   2423.63037,   1719.70984
   9798,   2421.63037,   1719.70984
   9799,   2422.63037,   1718.73157
   9800,   2423.63037,    1717.7533
   9801,   2421.63037,    1717.7533
   9802,   2422.63037,   1716.77502
   9803,   2423.63037,   1715.79675
   9804,   2421.63037,   1715.79675
   9805,   2422.63037,    1714.8186
   9806,   2423.63037,   1713.84033
   9807,   2421.63037,   1713.84033
   9808,   2422.63037,   1712.86206
   9809,   2423.63037,   1711.88379
   9810,   2421.63037,   1711.88379
   9811,   2422.63037,   1710.90552
   9812,   2423.63037,   1709.92725
   9813,   2421.63037,   1709.92725
   9814,   2422.63037,   1708.94897
   9815,   2423.63037,    1707.9707
   9816,   2421.63037,    1707.9707
   9817,   2422.63037,   1706.99243
   9818,   2423.63037,   1706.01416
   9819,   2421.63037,   1706.01416
   9820,   2422.63037,   1705.03589
   9821,   2423.63037,   1704.05762
   9822,   2421.63037,   1704.05762
   9823,   2422.63037,   1703.07935
   9824,   2423.63037,    1702.1012
   9825,   2421.63037,    1702.1012
   9826,   2422.63037,   1701.12292
   9827,   2423.63037,   1700.14465
   9828,   2421.63037,   1700.14465
   9829,   2422.63037,   1699.16638
   9830,   2423.63037,   1698.18811
   9831,   2421.63037,   1698.18811
   9832,   2424.63037,   1693.68811
   9833,   2425.13037,   1693.18811
   9834,   2425.13037,   1694.18811
   9835,   2412.63037,   1742.20984
   9836,   2413.63037,   1741.23157
   9837,   2410.63037,   1742.20984
   9838,   2411.63037,   1741.23157
   9839,   2412.63037,    1740.2533
   9840,   2413.63037,   1739.27502
   9841,   2410.63037,    1740.2533
   9842,   2411.63037,   1739.27502
   9843,   2412.63037,   1738.29675
   9844,   2413.63037,   1737.31848
   9845,   2410.63037,   1738.29675
   9846,   2411.63037,   1737.31848
   9847,   2412.63037,   1736.34033
   9848,   2413.63037,   1735.36206
   9849,   2410.63037,   1736.34033
   9850,   2411.63037,   1735.36206
   9851,   2412.63037,   1734.38379
   9852,   2413.63037,   1733.40552
   9853,   2410.63037,   1734.38379
   9854,   2411.63037,   1733.40552
   9855,   2412.63037,   1732.42725
   9856,   2413.63037,   1731.44897
   9857,   2410.63037,   1732.42725
   9858,   2411.63037,   1731.44897
   9859,   2412.63037,    1730.4707
   9860,   2413.63037,   1729.49243
   9861,   2410.63037,    1730.4707
   9862,   2411.63037,   1729.49243
   9863,   2412.63037,   1728.51416
   9864,   2413.63037,   1727.53589
   9865,   2410.63037,   1728.51416
   9866,   2411.63037,   1727.53589
   9867,   2412.63037,   1726.55762
   9868,   2413.63037,   1725.57947
   9869,   2410.63037,   1726.55762
   9870,   2411.63037,   1725.57947
   9871,   2412.63037,    1724.6012
   9872,   2413.63037,   1723.62292
   9873,   2410.63037,    1724.6012
   9874,   2411.63037,   1723.62292
   9875,   2412.63037,   1722.64465
   9876,   2413.63037,   1721.66638
   9877,   2410.63037,   1722.64465
   9878,   2411.63037,   1721.66638
   9879,   2412.63037,   1720.68811
   9880,   2413.63037,   1719.70984
   9881,   2410.63037,   1720.68811
   9882,   2411.63037,   1719.70984
   9883,   2412.63037,   1718.73157
   9884,   2413.63037,    1717.7533
   9885,   2410.63037,   1718.73157
   9886,   2411.63037,    1717.7533
   9887,   2412.63037,   1716.77502
   9888,   2413.63037,   1715.79675
   9889,   2410.63037,   1716.77502
   9890,   2411.63037,   1715.79675
   9891,   2412.63037,    1714.8186
   9892,   2413.63037,   1713.84033
   9893,   2410.63037,    1714.8186
   9894,   2411.63037,   1713.84033
   9895,   2412.63037,   1712.86206
   9896,   2413.63037,   1711.88379
   9897,   2410.63037,   1712.86206
   9898,   2411.63037,   1711.88379
   9899,   2412.63037,   1710.90552
   9900,   2413.63037,   1709.92725
   9901,   2410.63037,   1710.90552
   9902,   2411.63037,   1709.92725
   9903,   2412.63037,   1708.94897
   9904,   2413.63037,    1707.9707
   9905,   2410.63037,   1708.94897
   9906,   2411.63037,    1707.9707
   9907,   2412.63037,   1706.99243
   9908,   2413.63037,   1706.01416
   9909,   2410.63037,   1706.99243
   9910,   2411.63037,   1706.01416
   9911,   2412.63037,   1705.03589
   9912,   2413.63037,   1704.05762
   9913,   2410.63037,   1705.03589
   9914,   2411.63037,   1704.05762
   9915,   2412.63037,   1703.07935
   9916,   2413.63037,    1702.1012
   9917,   2410.63037,   1703.07935
   9918,   2411.63037,    1702.1012
   9919,   2412.63037,   1701.12292
   9920,   2413.63037,   1700.14465
   9921,   2410.63037,   1701.12292
   9922,   2411.63037,   1700.14465
   9923,   2412.63037,   1699.16638
   9924,   2413.63037,   1698.18811
   9925,   2410.63037,   1699.16638
   9926,   2411.63037,   1698.18811
   9927,   2416.63037,   1747.18811
   9928,   2417.63037,   1747.68811
   9929,   2418.63037,   1747.18811
   9930,   2424.63037,   1696.43811
   9931,   2425.13037,   1695.68811
   9932,   2424.63037,   1694.93811
   9933,   2422.63037,   1697.68811
   9934,   2423.63037,   1697.18811
   9935,   2421.63037,   1697.18811
   9936,   2420.63037,   1693.68811
   9937,   2421.63037,   1693.18811
   9938,   2422.63037,   1693.68811
   9939,   2421.63037,   1694.18811
   9940,   2423.63037,   1693.18811
   9941,   2423.63037,   1694.18811
   9942,   2413.63037,   1694.18811
   9943,   2412.63037,   1693.68811
   9944,   2413.63037,   1693.18811
   9945,   2414.63037,   1693.68811
   9946,   2411.63037,   1694.18811
   9947,   2410.63037,   1693.68811
   9948,   2411.63037,   1693.18811
   9949,   2412.63037,   1697.68811
   9950,   2413.63037,   1697.18811
   9951,   2410.63037,   1697.68811
   9952,   2411.63037,   1697.18811
   9953,   2416.63037,   1743.18811
   9954,   2417.63037,   1744.18811
   9955,   2416.63037,   1745.18811
   9956,   2415.63037,   1744.18811
   9957,   2418.63037,   1743.18811
   9958,   2419.63037,   1744.18811
   9959,   2418.63037,   1745.18811
   9960,   2417.63037,   1746.18811
   9961,   2415.63037,   1746.18811
   9962,   2419.63037,   1746.18811
   9963,   2422.63037,   1696.43811
   9964,   2423.63037,   1695.68811
   9965,   2420.63037,   1696.43811
   9966,   2421.63037,   1695.68811
   9967,   2422.63037,   1694.93811
   9968,   2420.63037,   1694.93811
   9969,   2419.63037,   1693.68811
   9970,   2420.13037,   1693.18811
   9971,   2420.13037,   1694.18811
   9972,   2415.13037,   1693.18811
   9973,   2415.63037,   1693.68811
   9974,   2415.13037,   1694.18811
   9975,   2412.63037,   1696.43811
   9976,   2413.63037,   1695.68811
   9977,   2414.63037,   1696.43811
   9978,   2410.63037,   1696.43811
   9979,   2411.63037,   1695.68811
   9980,   2412.63037,   1694.93811
   9981,   2414.63037,   1694.93811
   9982,   2410.63037,   1694.93811
   9983,   2417.63037,   1742.20984
   9984,   2418.63037,   1741.23157
   9985,   2416.63037,   1741.23157
   9986,   2417.63037,    1740.2533
   9987,   2418.63037,   1739.27502
   9988,   2416.63037,   1739.27502
   9989,   2417.63037,   1738.29675
   9990,   2418.63037,   1737.31848
   9991,   2416.63037,   1737.31848
   9992,   2417.63037,   1736.34033
   9993,   2418.63037,   1735.36206
   9994,   2416.63037,   1735.36206
   9995,   2417.63037,   1734.38379
   9996,   2418.63037,   1733.40552
   9997,   2416.63037,   1733.40552
   9998,   2417.63037,   1732.42725
   9999,   2418.63037,   1731.44897
  10000,   2416.63037,   1731.44897
  10001,   2417.63037,    1730.4707
  10002,   2418.63037,   1729.49243
  10003,   2416.63037,   1729.49243
  10004,   2417.63037,   1728.51416
  10005,   2418.63037,   1727.53589
  10006,   2416.63037,   1727.53589
  10007,   2417.63037,   1726.55762
  10008,   2418.63037,   1725.57947
  10009,   2416.63037,   1725.57947
  10010,   2417.63037,    1724.6012
  10011,   2418.63037,   1723.62292
  10012,   2416.63037,   1723.62292
  10013,   2417.63037,   1722.64465
  10014,   2418.63037,   1721.66638
  10015,   2416.63037,   1721.66638
  10016,   2417.63037,   1720.68811
  10017,   2418.63037,   1719.70984
  10018,   2416.63037,   1719.70984
  10019,   2417.63037,   1718.73157
  10020,   2418.63037,    1717.7533
  10021,   2416.63037,    1717.7533
  10022,   2417.63037,   1716.77502
  10023,   2418.63037,   1715.79675
  10024,   2416.63037,   1715.79675
  10025,   2417.63037,    1714.8186
  10026,   2418.63037,   1713.84033
  10027,   2416.63037,   1713.84033
  10028,   2417.63037,   1712.86206
  10029,   2418.63037,   1711.88379
  10030,   2416.63037,   1711.88379
  10031,   2417.63037,   1710.90552
  10032,   2418.63037,   1709.92725
  10033,   2416.63037,   1709.92725
  10034,   2417.63037,   1708.94897
  10035,   2418.63037,    1707.9707
  10036,   2416.63037,    1707.9707
  10037,   2417.63037,   1706.99243
  10038,   2418.63037,   1706.01416
  10039,   2416.63037,   1706.01416
  10040,   2417.63037,   1705.03589
  10041,   2418.63037,   1704.05762
  10042,   2416.63037,   1704.05762
  10043,   2417.63037,   1703.07935
  10044,   2418.63037,    1702.1012
  10045,   2416.63037,    1702.1012
  10046,   2417.63037,   1701.12292
  10047,   2418.63037,   1700.14465
  10048,   2416.63037,   1700.14465
  10049,   2417.63037,   1699.16638
  10050,   2418.63037,   1698.18811
  10051,   2416.63037,   1698.18811
  10052,   2419.63037,   1696.43811
  10053,   2420.13037,   1695.68811
  10054,   2419.63037,   1694.93811
  10055,   2416.63037,   1693.18811
  10056,   2417.63037,   1693.68811
  10057,   2416.63037,   1694.18811
  10058,   2418.63037,   1693.18811
  10059,   2418.63037,   1694.18811
  10060,   2415.13037,   1695.68811
  10061,   2415.63037,   1696.43811
  10062,   2415.63037,   1694.93811
  10063,   2417.63037,   1697.68811
  10064,   2418.63037,   1697.18811
  10065,   2416.63037,   1697.18811
  10066,   2419.63037,   1683.68811
  10067,   2415.63037,   1683.68811
  10068,   2417.63037,   1683.68811
  10069,   2414.63037,   1683.68811
  10070,   2410.63037,   1683.68811
  10071,   2412.63037,   1683.68811
  10072,   2409.63037,   1683.68811
  10073,   2405.63037,   1683.68811
  10074,   2407.63037,   1683.68811
  10075,   2404.63037,   1683.68811
  10076,   2400.63037,   1683.68811
  10077,   2402.63037,   1683.68811
  10078,   2399.63037,   1683.68811
  10079,   2395.63037,   1683.68811
  10080,   2397.63037,   1683.68811
  10081,   2394.63037,   1683.68811
  10082,   2392.63037,   1683.68811
  10083,   2392.13037,   1684.18811
  10084,   2392.13037,   1687.18811
  10085,   2392.13037,   1688.18811
  10086,   2391.63037,   1689.18811
  10087,   2389.63037,   1689.18811
  10088,   2385.63037,   1689.18811
  10089,   2387.63037,   1689.18811
  10090,   2386.63037,   1690.18811
  10091,   2388.63037,   1690.18811
  10092,   2366.63037,   1683.68811
  10093,   2368.63037,   1683.68811
  10094,   2367.63037,   1684.18811
  10095,   2369.63037,   1684.18811
  10096,   2374.63037,   1689.18811
  10097,   2376.46362,   1689.18811
  10098,   2375.54712,   1690.18811
  10099,   2378.29712,   1689.18811
  10100,   2377.38037,   1690.18811
  10101,   2380.13037,   1689.18811
  10102,   2379.21387,   1690.18811
  10103,   2381.96362,   1689.18811
  10104,   2381.04688,   1690.18811
  10105,   2383.79712,   1689.18811
  10106,   2382.88037,   1690.18811
  10107,   2384.71387,   1690.18811
  10108,   2368.63037,   1685.68811
  10109,   2367.63037,   1687.18811
  10110,   2366.63037,   1685.68811
  10111,   2369.63037,   1687.18811
  10112,   2366.13037,   1684.18811
  10113,   2450.63037,   1683.68811
  10114,   2449.63037,   1684.18811
  10115,   2448.63037,   1683.68811
  10116,   2447.63037,   1684.18811
  10117,   2446.63037,   1683.68811
  10118,   2445.63037,   1684.18811
  10119,   2444.63037,   1683.68811
  10120,   2443.63037,   1684.18811
  10121,   2442.63037,   1683.68811
  10122,   2441.63037,   1684.18811
  10123,   2370.63037,   1689.18811
  10124,   2372.63037,   1689.18811
  10125,   2371.63037,   1690.18811
  10126,   2373.63037,   1690.18811
  10127,   2369.63037,   1688.18811
  10128,   2368.63037,   1687.68811
  10129,   2367.63037,   1688.18811
  10130,   2366.63037,   1687.68811
  10131,   2366.13037,   1687.18811
  10132,   2451.63037,   1683.68811
  10133,   2451.13037,   1684.18811
  10134,   2366.63037,   1689.18811
  10135,   2368.63037,   1689.18811
  10136,   2367.63037,   1690.18811
  10137,   2369.63037,   1690.18811
  10138,   2366.13037,   1688.18811
  10139,   2455.63037,   1683.68811
  10140,   2454.63037,   1684.18811
  10141,   2453.63037,   1683.68811
  10142,   2452.63037,   1684.18811
  10143,   2366.13037,   1690.18811
  10144,   2456.63037,   1683.68811
  10145,   2456.13037,   1684.18811
  10146,   2366.63037,   1691.18811
  10147,   2366.13037,   1692.18811
  10148,   2458.63037,   1683.68811
  10149,   2457.63037,   1684.18811
  10150,   2460.63037,   1683.68811
  10151,   2459.63037,   1684.18811
  10152,   2366.63037,   1692.68811
  10153,   2366.13037,   1693.18811
  10154,   2461.63037,   1683.68811
  10155,   2461.13037,   1684.18811
  10156,   2366.13037,   1694.18811
  10157,   2366.63037,   1693.68811
  10158,   2464.63037,   1683.68811
  10159,   2463.88037,   1684.18811
  10160,   2463.13037,   1683.68811
  10161,   2462.38037,   1684.18811
  10162,   2366.63037,   1694.93811
  10163,   2366.13037,   1695.68811
  10164,   2366.63037,   1696.43811
  10165,   2366.13037,   1697.18811
  10166,   2465.63037,   1683.68811
  10167,   2465.13037,   1684.18811
  10168,   2366.13037,   1698.18811
  10169,   2366.63037,   1697.68811
  10170,   2467.63037,   1683.68811
  10171,   2466.63037,   1684.18811
  10172,   2469.63037,   1683.68811
  10173,   2468.63037,   1684.18811
  10174,   2366.13037,   1743.18811
  10175,   2366.13037,   1741.23157
  10176,   2366.63037,   1742.20984
  10177,   2366.13037,   1739.27502
  10178,   2366.63037,    1740.2533
  10179,   2366.13037,   1737.31848
  10180,   2366.63037,   1738.29675
  10181,   2366.13037,   1735.36206
  10182,   2366.63037,   1736.34033
  10183,   2366.13037,   1733.40552
  10184,   2366.63037,   1734.38379
  10185,   2366.13037,   1731.44897
  10186,   2366.63037,   1732.42725
  10187,   2366.13037,   1729.49243
  10188,   2366.63037,    1730.4707
  10189,   2366.13037,   1727.53589
  10190,   2366.63037,   1728.51416
  10191,   2366.13037,   1725.57947
  10192,   2366.63037,   1726.55762
  10193,   2366.13037,   1723.62292
  10194,   2366.63037,    1724.6012
  10195,   2366.13037,   1721.66638
  10196,   2366.63037,   1722.64465
  10197,   2366.13037,   1719.70984
  10198,   2366.63037,   1720.68811
  10199,   2366.13037,    1717.7533
  10200,   2366.63037,   1718.73157
  10201,   2366.13037,   1715.79675
  10202,   2366.63037,   1716.77502
  10203,   2366.13037,   1713.84033
  10204,   2366.63037,    1714.8186
  10205,   2366.13037,   1711.88379
  10206,   2366.63037,   1712.86206
  10207,   2366.13037,   1709.92725
  10208,   2366.63037,   1710.90552
  10209,   2366.13037,    1707.9707
  10210,   2366.63037,   1708.94897
  10211,   2366.13037,   1706.01416
  10212,   2366.63037,   1706.99243
  10213,   2366.13037,   1704.05762
  10214,   2366.63037,   1705.03589
  10215,   2366.13037,    1702.1012
  10216,   2366.63037,   1703.07935
  10217,   2366.13037,   1700.14465
  10218,   2366.63037,   1701.12292
  10219,   2366.63037,   1699.16638
  10220,   2470.63037,   1683.68811
  10221,   2470.13037,   1684.18811
  10222,   2366.13037,   1747.18811
  10223,   2366.13037,   1745.18811
  10224,   2366.63037,   1746.18811
  10225,   2366.63037,   1744.18811
  10226,   2490.63037,   1683.68811
  10227,   2489.63037,   1684.18811
  10228,   2488.63037,   1683.68811
  10229,   2487.63037,   1684.18811
  10230,   2486.63037,   1683.68811
  10231,   2485.63037,   1684.18811
  10232,   2484.63037,   1683.68811
  10233,   2483.63037,   1684.18811
  10234,   2482.63037,   1683.68811
  10235,   2481.63037,   1684.18811
  10236,   2480.63037,   1683.68811
  10237,   2479.63037,   1684.18811
  10238,   2478.63037,   1683.68811
  10239,   2477.63037,   1684.18811
  10240,   2476.63037,   1683.68811
  10241,   2475.63037,   1684.18811
  10242,   2474.63037,   1683.68811
  10243,   2473.63037,   1684.18811
  10244,   2472.63037,   1683.68811
  10245,   2471.63037,   1684.18811
  10246,   2366.13037,   1748.18811
  10247,   2366.63037,   1747.68811
  10248,   2491.63037,   1683.68811
  10249,   2491.13037,   1684.18811
  10250,   2366.13037,   1752.18811
  10251,   2366.13037,   1750.18811
  10252,   2366.63037,   1751.18811
  10253,   2366.63037,   1749.18811
  10254,   2495.63037,   1683.68811
  10255,   2494.63037,   1684.18811
  10256,   2493.63037,   1683.68811
  10257,   2492.63037,   1684.18811
  10258,   2366.13037,   1753.18811
  10259,   2366.63037,   1752.68811
  10260,   2496.63037,   1683.68811
  10261,   2496.13037,   1684.18811
  10262,   2366.13037,   1757.18811
  10263,   2366.13037,   1755.18811
  10264,   2366.63037,   1756.18811
  10265,   2366.63037,   1754.18811
  10266,   2497.63037,   1683.68811
  10267,   2497.13037,   1684.18811
  10268,   2366.63037,   1757.68811
  10269,   2500.63037,   1683.68811
  10270,   2499.13037,   1684.18811
  10271,   2370.63037,   1757.68811
  10272,   2368.63037,   1757.68811
  10273,   2369.63037,   1757.18811
  10274,   2367.63037,   1757.18811
  10275,   2501.63037,   1683.68811
  10276,   2501.13037,   1684.18811
  10277,   2371.63037,   1757.18811
  10278,   2372.63037,   1757.68811
  10279,   2373.63037,   1757.18811
  10280,   2374.63037,   1757.68811
  10281,   2502.63037,   1683.68811
  10282,   2502.13037,   1684.18811
  10283,   2375.54712,   1757.18811
  10284,   2376.46362,   1757.68811
  10285,   2377.38037,   1757.18811
  10286,   2378.29712,   1757.68811
  10287,   2379.21387,   1757.18811
  10288,   2380.13037,   1757.68811
  10289,   2381.04688,   1757.18811
  10290,   2381.96362,   1757.68811
  10291,   2382.88037,   1757.18811
  10292,   2383.79712,   1757.68811
  10293,   2384.71387,   1757.18811
  10294,   2385.63037,   1757.68811
  10295,   2504.63037,   1683.68811
  10296,   2503.63037,   1684.18811
  10297,   2386.63037,   1757.18811
  10298,   2387.63037,   1757.68811
  10299,   2388.63037,   1757.18811
  10300,   2389.63037,   1757.68811
  10301,   2505.13037,   1684.18811
  10302,   2390.63037,   1757.18811
  10303,   2391.63037,   1757.68811
  10304,   2505.13037,   1687.18811
  10305,   2504.63037,   1685.68811
  10306,   2392.13037,   1757.18811
  10307,   2392.63037,   1757.68811
  10308,   2505.13037,   1688.18811
  10309,   2504.63037,   1687.68811
  10310,   2393.63037,   1757.18811
  10311,   2394.63037,   1757.68811
  10312,   2505.13037,   1690.18811
  10313,   2504.63037,   1689.18811
  10314,   2395.63037,   1757.68811
  10315,   2395.13037,   1757.18811
  10316,   2505.13037,   1692.18811
  10317,   2504.63037,   1691.18811
  10318,   2399.63037,   1757.68811
  10319,   2397.63037,   1757.68811
  10320,   2398.63037,   1757.18811
  10321,   2396.63037,   1757.18811
  10322,   2505.13037,   1693.18811
  10323,   2504.63037,   1692.68811
  10324,   2400.63037,   1757.68811
  10325,   2400.13037,   1757.18811
  10326,   2505.13037,   1694.18811
  10327,   2504.63037,   1693.68811
  10328,   2404.63037,   1757.68811
  10329,   2402.63037,   1757.68811
  10330,   2403.63037,   1757.18811
  10331,   2401.63037,   1757.18811
  10332,   2505.13037,   1697.18811
  10333,   2504.63037,   1696.43811
  10334,   2505.13037,   1695.68811
  10335,   2504.63037,   1694.93811
  10336,   2405.63037,   1757.68811
  10337,   2405.13037,   1757.18811
  10338,   2505.13037,   1698.18811
  10339,   2504.63037,   1697.68811
  10340,   2409.63037,   1757.68811
  10341,   2407.63037,   1757.68811
  10342,   2408.63037,   1757.18811
  10343,   2406.63037,   1757.18811
  10344,   2505.13037,   1730.18811
  10345,   2504.63037,   1729.18811
  10346,   2505.13037,   1728.18811
  10347,   2504.63037,   1727.18811
  10348,   2505.13037,   1726.18811
  10349,   2504.63037,   1725.18811
  10350,   2505.13037,   1724.18811
  10351,   2504.63037,   1723.18811
  10352,   2505.13037,   1722.18811
  10353,   2504.63037,   1721.18811
  10354,   2505.13037,   1720.18811
  10355,   2504.63037,   1719.18811
  10356,   2505.13037,   1718.18811
  10357,   2504.63037,   1717.18811
  10358,   2505.13037,   1716.18811
  10359,   2504.63037,   1715.18811
  10360,   2505.13037,   1714.18811
  10361,   2504.63037,   1713.18811
  10362,   2505.13037,   1712.18811
  10363,   2504.63037,   1711.18811
  10364,   2505.13037,   1710.18811
  10365,   2504.63037,   1709.18811
  10366,   2505.13037,   1708.18811
  10367,   2504.63037,   1707.18811
  10368,   2505.13037,   1706.18811
  10369,   2504.63037,   1705.18811
  10370,   2505.13037,   1704.18811
  10371,   2504.63037,   1703.18811
  10372,   2505.13037,   1702.18811
  10373,   2504.63037,   1701.18811
  10374,   2505.13037,   1700.18811
  10375,   2504.63037,   1699.18811
  10376,   2410.13037,   1757.18811
  10377,   2505.13037,   1732.18811
  10378,   2504.63037,   1731.18811
  10379,   2505.13037,   1734.18811
  10380,   2504.63037,   1733.18811
  10381,   2505.13037,   1736.18811
  10382,   2504.63037,   1735.18811
  10383,   2505.13037,   1738.18811
  10384,   2504.63037,   1737.18811
  10385,   2505.13037,   1740.18811
  10386,   2504.63037,   1739.18811
  10387,   2410.13037,   1753.18811
  10388,   2410.13037,   1755.18811
  10389,   2409.63037,   1754.18811
  10390,   2409.63037,   1756.18811
  10391,   2505.13037,   1742.18811
  10392,   2504.63037,   1741.18811
  10393,   2505.13037,   1744.18811
  10394,   2504.63037,   1743.18811
  10395,   2505.13037,   1746.18811
  10396,   2504.63037,   1745.18811
  10397,   2505.13037,   1748.18811
  10398,   2504.63037,   1747.18811
  10399,   2505.13037,   1750.18811
  10400,   2504.63037,   1749.18811
  10401,   2505.13037,   1752.18811
  10402,   2504.63037,   1751.18811
  10403,   2505.13037,   1754.18811
  10404,   2504.63037,   1753.18811
  10405,   2505.13037,   1756.18811
  10406,   2504.63037,   1755.18811
  10407,   2505.13037,   1758.18811
  10408,   2504.63037,   1757.18811
  10409,   2505.13037,   1760.18811
  10410,   2504.63037,   1759.18811
  10411,   2505.13037,   1762.18811
  10412,   2504.63037,   1761.18811
  10413,   2505.13037,   1764.18811
  10414,   2504.63037,   1763.18811
  10415,   2505.13037,   1766.18811
  10416,   2504.63037,   1765.18811
  10417,   2505.13037,   1768.18811
  10418,   2504.63037,   1767.18811
  10419,   2505.13037,   1770.18811
  10420,   2504.63037,   1769.18811
  10421,   2505.13037,   1772.18811
  10422,   2504.63037,   1771.18811
  10423,   2505.13037,   1774.18811
  10424,   2504.63037,   1773.18811
  10425,   2505.13037,   1776.18811
  10426,   2504.63037,   1775.18811
  10427,   2505.13037,   1778.18811
  10428,   2504.63037,   1777.18811
  10429,   2505.13037,   1780.18811
  10430,   2504.63037,   1779.18811
  10431,   2505.13037,   1782.18811
  10432,   2504.63037,   1781.18811
  10433,   2505.13037,   1784.18811
  10434,   2504.63037,   1783.18811
  10435,   2505.13037,   1786.18811
  10436,   2504.63037,   1785.18811
  10437,   2505.13037,   1788.18811
  10438,   2504.63037,   1787.18811
  10439,   2410.13037,   1752.18811
  10440,   2409.63037,   1752.68811
  10441,   2505.13037,   1792.18811
  10442,   2504.63037,   1791.18811
  10443,   2505.13037,   1790.18811
  10444,   2504.63037,   1789.18811
  10445,   2410.13037,   1748.18811
  10446,   2410.13037,   1750.18811
  10447,   2409.63037,   1749.18811
  10448,   2409.63037,   1751.18811
  10449,   2504.63037,   1792.68811
  10450,   2410.13037,   1747.18811
  10451,   2409.63037,   1747.68811
  10452,   2502.63037,   1792.68811
  10453,   2503.63037,   1792.18811
  10454,   2410.13037,   1743.18811
  10455,   2410.13037,   1745.18811
  10456,   2409.63037,   1744.18811
  10457,   2409.63037,   1746.18811
  10458,   2501.63037,   1792.68811
  10459,   2502.13037,   1792.18811
  10460,   2409.63037,   1742.20984
  10461,   2410.13037,   1741.23157
  10462,   2409.63037,    1740.2533
  10463,   2410.13037,   1739.27502
  10464,   2409.63037,   1738.29675
  10465,   2410.13037,   1737.31848
  10466,   2409.63037,   1736.34033
  10467,   2410.13037,   1735.36206
  10468,   2409.63037,   1734.38379
  10469,   2410.13037,   1733.40552
  10470,   2409.63037,   1732.42725
  10471,   2410.13037,   1731.44897
  10472,   2409.63037,    1730.4707
  10473,   2410.13037,   1729.49243
  10474,   2409.63037,   1728.51416
  10475,   2410.13037,   1727.53589
  10476,   2409.63037,   1726.55762
  10477,   2410.13037,   1725.57947
  10478,   2409.63037,    1724.6012
  10479,   2410.13037,   1723.62292
  10480,   2409.63037,   1722.64465
  10481,   2410.13037,   1721.66638
  10482,   2409.63037,   1720.68811
  10483,   2410.13037,   1719.70984
  10484,   2409.63037,   1718.73157
  10485,   2410.13037,    1717.7533
  10486,   2409.63037,   1716.77502
  10487,   2410.13037,   1715.79675
  10488,   2409.63037,    1714.8186
  10489,   2410.13037,   1713.84033
  10490,   2409.63037,   1712.86206
  10491,   2410.13037,   1711.88379
  10492,   2409.63037,   1710.90552
  10493,   2410.13037,   1709.92725
  10494,   2409.63037,   1708.94897
  10495,   2410.13037,    1707.9707
  10496,   2409.63037,   1706.99243
  10497,   2410.13037,   1706.01416
  10498,   2409.63037,   1705.03589
  10499,   2410.13037,   1704.05762
  10500,   2409.63037,   1703.07935
  10501,   2410.13037,    1702.1012
  10502,   2409.63037,   1701.12292
  10503,   2410.13037,   1700.14465
  10504,   2409.63037,   1699.16638
  10505,   2410.13037,   1698.18811
  10506,   2500.63037,   1792.68811
  10507,   2501.13037,   1792.18811
  10508,   2409.63037,   1697.68811
  10509,   2410.13037,   1697.18811
  10510,   2497.63037,   1792.68811
  10511,   2499.13037,   1792.18811
  10512,   2409.63037,   1696.43811
  10513,   2410.13037,   1695.68811
  10514,   2409.63037,   1694.93811
  10515,   2410.13037,   1694.18811
  10516,   2496.63037,   1792.68811
  10517,   2497.13037,   1792.18811
  10518,   2410.13037,   1693.18811
  10519,   2409.63037,   1693.68811
  10520,   2496.13037,   1792.18811
  10521,   2409.63037,   1692.68811
  10522,   2410.13037,   1692.18811
  10523,   2410.63037,   1692.68811
  10524,   2496.13037,   1788.18811
  10525,   2496.63037,   1789.18811
  10526,   2496.13037,   1790.18811
  10527,   2496.63037,   1791.18811
  10528,   2411.63037,   1692.18811
  10529,   2412.63037,   1692.68811
  10530,   2413.63037,   1692.18811
  10531,   2414.63037,   1692.68811
  10532,   2496.13037,   1786.18811
  10533,   2496.63037,   1787.18811
  10534,   2496.13037,   1784.18811
  10535,   2496.63037,   1785.18811
  10536,   2496.13037,   1782.18811
  10537,   2496.63037,   1783.18811
  10538,   2496.13037,   1780.18811
  10539,   2496.63037,   1781.18811
  10540,   2496.13037,   1778.18811
  10541,   2496.63037,   1779.18811
  10542,   2496.13037,   1776.18811
  10543,   2496.63037,   1777.18811
  10544,   2496.13037,   1774.18811
  10545,   2496.63037,   1775.18811
  10546,   2496.13037,   1772.18811
  10547,   2496.63037,   1773.18811
  10548,   2496.13037,   1770.18811
  10549,   2496.63037,   1771.18811
  10550,   2496.13037,   1768.18811
  10551,   2496.63037,   1769.18811
  10552,   2496.13037,   1766.18811
  10553,   2496.63037,   1767.18811
  10554,   2496.13037,   1764.18811
  10555,   2496.63037,   1765.18811
  10556,   2496.13037,   1762.18811
  10557,   2496.63037,   1763.18811
  10558,   2496.13037,   1760.18811
  10559,   2496.63037,   1761.18811
  10560,   2496.13037,   1758.18811
  10561,   2496.63037,   1759.18811
  10562,   2496.13037,   1756.18811
  10563,   2496.63037,   1757.18811
  10564,   2496.13037,   1754.18811
  10565,   2496.63037,   1755.18811
  10566,   2496.13037,   1752.18811
  10567,   2496.63037,   1753.18811
  10568,   2496.13037,   1750.18811
  10569,   2496.63037,   1751.18811
  10570,   2496.13037,   1748.18811
  10571,   2496.63037,   1749.18811
  10572,   2496.13037,   1746.18811
  10573,   2496.63037,   1747.18811
  10574,   2496.13037,   1744.18811
  10575,   2496.63037,   1745.18811
  10576,   2496.13037,   1742.18811
  10577,   2496.63037,   1743.18811
  10578,   2496.13037,   1740.18811
  10579,   2496.63037,   1741.18811
  10580,   2415.13037,   1692.18811
  10581,   2415.63037,   1692.68811
  10582,   2496.13037,   1738.18811
  10583,   2496.63037,   1739.18811
  10584,   2496.13037,   1736.18811
  10585,   2496.63037,   1737.18811
  10586,   2496.13037,   1734.18811
  10587,   2496.63037,   1735.18811
  10588,   2496.13037,   1732.18811
  10589,   2496.63037,   1733.18811
  10590,   2496.13037,   1730.18811
  10591,   2496.63037,   1731.18811
  10592,   2416.63037,   1692.18811
  10593,   2417.63037,   1692.68811
  10594,   2418.63037,   1692.18811
  10595,   2419.63037,   1692.68811
  10596,   2496.13037,   1728.18811
  10597,   2496.63037,   1729.18811
  10598,   2496.13037,   1726.18811
  10599,   2496.63037,   1727.18811
  10600,   2496.13037,   1724.18811
  10601,   2496.63037,   1725.18811
  10602,   2496.13037,   1722.18811
  10603,   2496.63037,   1723.18811
  10604,   2496.13037,   1720.18811
  10605,   2496.63037,   1721.18811
  10606,   2496.13037,   1718.18811
  10607,   2496.63037,   1719.18811
  10608,   2496.13037,   1716.18811
  10609,   2496.63037,   1717.18811
  10610,   2496.13037,   1714.18811
  10611,   2496.63037,   1715.18811
  10612,   2496.13037,   1712.18811
  10613,   2496.63037,   1713.18811
  10614,   2496.13037,   1710.18811
  10615,   2496.63037,   1711.18811
  10616,   2496.13037,   1708.18811
  10617,   2496.63037,   1709.18811
  10618,   2496.13037,   1706.18811
  10619,   2496.63037,   1707.18811
  10620,   2496.13037,   1704.18811
  10621,   2496.63037,   1705.18811
  10622,   2496.13037,   1702.18811
  10623,   2496.63037,   1703.18811
  10624,   2496.13037,   1700.18811
  10625,   2496.63037,   1701.18811
  10626,   2496.13037,   1698.18811
  10627,   2496.63037,   1699.18811
  10628,   2420.13037,   1692.18811
  10629,   2420.63037,   1692.68811
  10630,   2496.13037,   1697.18811
  10631,   2496.63037,   1697.68811
  10632,   2421.63037,   1692.18811
  10633,   2422.63037,   1692.68811
  10634,   2423.63037,   1692.18811
  10635,   2424.63037,   1692.68811
  10636,   2496.13037,   1695.68811
  10637,   2496.63037,   1696.43811
  10638,   2496.13037,   1694.18811
  10639,   2496.63037,   1694.93811
  10640,   2425.13037,   1692.18811
  10641,   2425.63037,   1692.68811
  10642,   2496.13037,   1693.18811
  10643,   2496.63037,   1693.68811
  10644,   2426.63037,   1692.18811
  10645,   2427.63037,   1692.68811
  10646,   2428.63037,   1692.18811
  10647,   2429.63037,   1692.68811
  10648,   2495.63037,   1692.68811
  10649,   2496.13037,   1692.18811
  10650,   2496.63037,   1692.68811
  10651,   2430.13037,   1692.18811
  10652,   2430.63037,   1692.68811
  10653,   2493.63037,   1692.68811
  10654,   2494.63037,   1692.18811
  10655,   2491.63037,   1692.68811
  10656,   2492.63037,   1692.18811
  10657,   2431.63037,   1692.18811
  10658,   2432.63037,   1692.68811
  10659,   2433.63037,   1692.18811
  10660,   2434.63037,   1692.68811
  10661,   2435.63037,   1692.18811
  10662,   2436.63037,   1692.68811
  10663,   2437.63037,   1692.18811
  10664,   2438.63037,   1692.68811
  10665,   2439.63037,   1692.18811
  10666,   2440.63037,   1692.68811
  10667,   2490.63037,   1692.68811
  10668,   2491.13037,   1692.18811
  10669,   2441.63037,   1692.18811
  10670,   2442.63037,   1692.68811
  10671,   2443.63037,   1692.18811
  10672,   2444.63037,   1692.68811
  10673,   2445.63037,   1692.18811
  10674,   2446.63037,   1692.68811
  10675,   2447.63037,   1692.18811
  10676,   2448.63037,   1692.68811
  10677,   2449.63037,   1692.18811
  10678,   2450.63037,   1692.68811
  10679,   2488.63037,   1692.68811
  10680,   2489.63037,   1692.18811
  10681,   2486.63037,   1692.68811
  10682,   2487.63037,   1692.18811
  10683,   2484.63037,   1692.68811
  10684,   2485.63037,   1692.18811
  10685,   2482.63037,   1692.68811
  10686,   2483.63037,   1692.18811
  10687,   2480.63037,   1692.68811
  10688,   2481.63037,   1692.18811
  10689,   2478.63037,   1692.68811
  10690,   2479.63037,   1692.18811
  10691,   2476.63037,   1692.68811
  10692,   2477.63037,   1692.18811
  10693,   2474.63037,   1692.68811
  10694,   2475.63037,   1692.18811
  10695,   2472.63037,   1692.68811
  10696,   2473.63037,   1692.18811
  10697,   2470.63037,   1692.68811
  10698,   2471.63037,   1692.18811
  10699,   2451.13037,   1692.18811
  10700,   2451.63037,   1692.68811
  10701,   2469.63037,   1692.68811
  10702,   2470.13037,   1692.18811
  10703,   2455.63037,   1692.68811
  10704,   2453.63037,   1692.68811
  10705,   2454.63037,   1692.18811
  10706,   2452.63037,   1692.18811
  10707,   2465.63037,   1692.68811
  10708,   2466.63037,   1692.18811
  10709,   2467.63037,   1692.68811
  10710,   2468.63037,   1692.18811
  10711,   2456.13037,   1693.18811
  10712,   2456.13037,   1692.18811
  10713,   2456.63037,   1692.68811
  10714,   2465.13037,   1693.18811
  10715,   2464.63037,   1692.68811
  10716,   2465.13037,   1692.18811
  10717,   2456.63037,   1693.68811
  10718,   2456.13037,   1694.18811
  10719,   2465.13037,   1694.18811
  10720,   2464.63037,   1693.68811
  10721,   2456.63037,   1694.93811
  10722,   2456.13037,   1695.68811
  10723,   2456.63037,   1696.43811
  10724,   2456.13037,   1697.18811
  10725,   2465.13037,   1695.68811
  10726,   2464.63037,   1694.93811
  10727,   2465.13037,   1697.18811
  10728,   2464.63037,   1696.43811
  10729,   2456.13037,   1698.18811
  10730,   2456.63037,   1697.68811
  10731,   2465.13037,   1698.18811
  10732,   2464.63037,   1697.68811
  10733,   2456.63037,   1699.18811
  10734,   2456.13037,   1700.18811
  10735,   2456.63037,   1701.18811
  10736,   2456.13037,   1702.18811
  10737,   2456.63037,   1703.18811
  10738,   2456.13037,   1704.18811
  10739,   2456.63037,   1705.18811
  10740,   2456.13037,   1706.18811
  10741,   2456.63037,   1707.18811
  10742,   2456.13037,   1708.18811
  10743,   2456.63037,   1709.18811
  10744,   2456.13037,   1710.18811
  10745,   2456.63037,   1711.18811
  10746,   2456.13037,   1712.18811
  10747,   2456.63037,   1713.18811
  10748,   2456.13037,   1714.18811
  10749,   2456.63037,   1715.18811
  10750,   2456.13037,   1716.18811
  10751,   2456.63037,   1717.18811
  10752,   2456.13037,   1718.18811
  10753,   2456.63037,   1719.18811
  10754,   2456.13037,   1720.18811
  10755,   2456.63037,   1721.18811
  10756,   2456.13037,   1722.18811
  10757,   2456.63037,   1723.18811
  10758,   2456.13037,   1724.18811
  10759,   2456.63037,   1725.18811
  10760,   2456.13037,   1726.18811
  10761,   2456.63037,   1727.18811
  10762,   2456.13037,   1728.18811
  10763,   2456.63037,   1729.18811
  10764,   2456.13037,   1730.18811
  10765,   2456.63037,   1731.18811
  10766,   2456.13037,   1732.18811
  10767,   2456.63037,   1733.18811
  10768,   2456.13037,   1734.18811
  10769,   2456.63037,   1735.18811
  10770,   2456.13037,   1736.18811
  10771,   2456.63037,   1737.18811
  10772,   2456.13037,   1738.18811
  10773,   2465.13037,   1738.18811
  10774,   2464.63037,   1737.18811
  10775,   2465.13037,   1736.18811
  10776,   2464.63037,   1735.18811
  10777,   2465.13037,   1734.18811
  10778,   2464.63037,   1733.18811
  10779,   2465.13037,   1732.18811
  10780,   2464.63037,   1731.18811
  10781,   2465.13037,   1730.18811
  10782,   2464.63037,   1729.18811
  10783,   2465.13037,   1728.18811
  10784,   2464.63037,   1727.18811
  10785,   2465.13037,   1726.18811
  10786,   2464.63037,   1725.18811
  10787,   2465.13037,   1724.18811
  10788,   2464.63037,   1723.18811
  10789,   2465.13037,   1722.18811
  10790,   2464.63037,   1721.18811
  10791,   2465.13037,   1720.18811
  10792,   2464.63037,   1719.18811
  10793,   2465.13037,   1718.18811
  10794,   2464.63037,   1717.18811
  10795,   2465.13037,   1716.18811
  10796,   2464.63037,   1715.18811
  10797,   2465.13037,   1714.18811
  10798,   2464.63037,   1713.18811
  10799,   2465.13037,   1712.18811
  10800,   2464.63037,   1711.18811
  10801,   2465.13037,   1710.18811
  10802,   2464.63037,   1709.18811
  10803,   2465.13037,   1708.18811
  10804,   2464.63037,   1707.18811
  10805,   2465.13037,   1706.18811
  10806,   2464.63037,   1705.18811
  10807,   2465.13037,   1704.18811
  10808,   2464.63037,   1703.18811
  10809,   2465.13037,   1702.18811
  10810,   2464.63037,   1701.18811
  10811,   2465.13037,   1700.18811
  10812,   2464.63037,   1699.18811
  10813,   2456.13037,   1742.18811
  10814,   2456.13037,   1740.18811
  10815,   2456.63037,   1741.18811
  10816,   2456.63037,   1739.18811
  10817,   2465.13037,   1740.18811
  10818,   2464.63037,   1739.18811
  10819,   2465.13037,   1742.18811
  10820,   2464.63037,   1741.18811
  10821,   2456.63037,   1742.68811
  10822,   2464.63037,   1742.68811
  10823,   2457.63037,   1742.18811
  10824,   2458.63037,   1742.68811
  10825,   2459.63037,   1742.18811
  10826,   2460.63037,   1742.68811
  10827,   2461.63037,   1742.68811
  10828,   2462.38037,   1742.18811
  10829,   2463.13037,   1742.68811
  10830,   2463.88037,   1742.18811
  10831,   2450.63037,   1685.68811
  10832,   2448.63037,   1685.68811
  10833,   2446.63037,   1685.68811
  10834,   2444.63037,   1685.68811
  10835,   2442.63037,   1685.68811
  10836,   2451.63037,   1685.68811
  10837,   2455.63037,   1685.68811
  10838,   2453.63037,   1685.68811
  10839,   2456.63037,   1685.68811
  10840,   2458.63037,   1685.68811
  10841,   2460.63037,   1685.68811
  10842,   2461.63037,   1685.68811
  10843,   2464.63037,   1685.68811
  10844,   2463.13037,   1685.68811
  10845,   2465.63037,   1685.68811
  10846,   2467.63037,   1685.68811
  10847,   2469.63037,   1685.68811
  10848,   2470.63037,   1685.68811
  10849,   2490.63037,   1685.68811
  10850,   2488.63037,   1685.68811
  10851,   2486.63037,   1685.68811
  10852,   2484.63037,   1685.68811
  10853,   2482.63037,   1685.68811
  10854,   2480.63037,   1685.68811
  10855,   2478.63037,   1685.68811
  10856,   2476.63037,   1685.68811
  10857,   2474.63037,   1685.68811
  10858,   2472.63037,   1685.68811
  10859,   2491.63037,   1685.68811
  10860,   2495.63037,   1685.68811
  10861,   2493.63037,   1685.68811
  10862,   2496.63037,   1685.68811
  10863,   2497.63037,   1685.68811
  10864,   2500.63037,   1685.68811
  10865,   2501.63037,   1685.68811
  10866,   2501.13037,   1687.18811
  10867,   2502.63037,   1685.68811
  10868,   2502.13037,   1687.18811
  10869,   2503.63037,   1687.18811
  10870,   2502.63037,   1687.68811
  10871,   2502.13037,   1688.18811
  10872,   2501.63037,   1687.68811
  10873,   2503.63037,   1688.18811
  10874,   2502.63037,   1689.18811
  10875,   2502.13037,   1690.18811
  10876,   2503.63037,   1690.18811
  10877,   2502.13037,   1692.18811
  10878,   2502.63037,   1691.18811
  10879,   2503.63037,   1692.18811
  10880,   2502.13037,   1693.18811
  10881,   2502.63037,   1692.68811
  10882,   2503.63037,   1693.18811
  10883,   2502.63037,   1693.68811
  10884,   2502.13037,   1694.18811
  10885,   2503.63037,   1694.18811
  10886,   2502.13037,   1697.18811
  10887,   2502.13037,   1695.68811
  10888,   2502.63037,   1696.43811
  10889,   2502.63037,   1694.93811
  10890,   2503.63037,   1697.18811
  10891,   2503.63037,   1695.68811
  10892,   2502.13037,   1698.18811
  10893,   2502.63037,   1697.68811
  10894,   2503.63037,   1698.18811
  10895,   2502.63037,   1699.18811
  10896,   2502.13037,   1700.18811
  10897,   2502.63037,   1701.18811
  10898,   2502.13037,   1702.18811
  10899,   2502.63037,   1703.18811
  10900,   2502.13037,   1704.18811
  10901,   2502.63037,   1705.18811
  10902,   2502.13037,   1706.18811
  10903,   2502.63037,   1707.18811
  10904,   2502.13037,   1708.18811
  10905,   2502.63037,   1709.18811
  10906,   2502.13037,   1710.18811
  10907,   2502.63037,   1711.18811
  10908,   2502.13037,   1712.18811
  10909,   2502.63037,   1713.18811
  10910,   2502.13037,   1714.18811
  10911,   2502.63037,   1715.18811
  10912,   2502.13037,   1716.18811
  10913,   2502.63037,   1717.18811
  10914,   2502.13037,   1718.18811
  10915,   2502.63037,   1719.18811
  10916,   2502.13037,   1720.18811
  10917,   2502.63037,   1721.18811
  10918,   2502.13037,   1722.18811
  10919,   2502.63037,   1723.18811
  10920,   2502.13037,   1724.18811
  10921,   2502.63037,   1725.18811
  10922,   2502.13037,   1726.18811
  10923,   2502.63037,   1727.18811
  10924,   2502.13037,   1728.18811
  10925,   2502.63037,   1729.18811
  10926,   2502.13037,   1730.18811
  10927,   2503.63037,   1730.18811
  10928,   2503.63037,   1728.18811
  10929,   2503.63037,   1726.18811
  10930,   2503.63037,   1724.18811
  10931,   2503.63037,   1722.18811
  10932,   2503.63037,   1720.18811
  10933,   2503.63037,   1718.18811
  10934,   2503.63037,   1716.18811
  10935,   2503.63037,   1714.18811
  10936,   2503.63037,   1712.18811
  10937,   2503.63037,   1710.18811
  10938,   2503.63037,   1708.18811
  10939,   2503.63037,   1706.18811
  10940,   2503.63037,   1704.18811
  10941,   2503.63037,   1702.18811
  10942,   2503.63037,   1700.18811
  10943,   2503.63037,   1732.18811
  10944,   2502.63037,   1731.18811
  10945,   2503.63037,   1734.18811
  10946,   2502.63037,   1733.18811
  10947,   2503.63037,   1736.18811
  10948,   2502.63037,   1735.18811
  10949,   2503.63037,   1738.18811
  10950,   2502.63037,   1737.18811
  10951,   2503.63037,   1740.18811
  10952,   2502.63037,   1739.18811
  10953,   2503.63037,   1742.18811
  10954,   2502.63037,   1741.18811
  10955,   2503.63037,   1744.18811
  10956,   2502.63037,   1743.18811
  10957,   2503.63037,   1746.18811
  10958,   2502.63037,   1745.18811
  10959,   2503.63037,   1748.18811
  10960,   2502.63037,   1747.18811
  10961,   2503.63037,   1750.18811
  10962,   2502.63037,   1749.18811
  10963,   2503.63037,   1752.18811
  10964,   2502.63037,   1751.18811
  10965,   2503.63037,   1754.18811
  10966,   2502.63037,   1753.18811
  10967,   2503.63037,   1756.18811
  10968,   2502.63037,   1755.18811
  10969,   2503.63037,   1758.18811
  10970,   2502.63037,   1757.18811
  10971,   2503.63037,   1760.18811
  10972,   2502.63037,   1759.18811
  10973,   2503.63037,   1762.18811
  10974,   2502.63037,   1761.18811
  10975,   2503.63037,   1764.18811
  10976,   2502.63037,   1763.18811
  10977,   2503.63037,   1766.18811
  10978,   2502.63037,   1765.18811
  10979,   2503.63037,   1768.18811
  10980,   2502.63037,   1767.18811
  10981,   2503.63037,   1770.18811
  10982,   2502.63037,   1769.18811
  10983,   2503.63037,   1772.18811
  10984,   2502.63037,   1771.18811
  10985,   2503.63037,   1774.18811
  10986,   2502.63037,   1773.18811
  10987,   2503.63037,   1776.18811
  10988,   2502.63037,   1775.18811
  10989,   2503.63037,   1778.18811
  10990,   2502.63037,   1777.18811
  10991,   2503.63037,   1780.18811
  10992,   2502.63037,   1779.18811
  10993,   2503.63037,   1782.18811
  10994,   2502.63037,   1781.18811
  10995,   2503.63037,   1784.18811
  10996,   2502.63037,   1783.18811
  10997,   2503.63037,   1786.18811
  10998,   2502.63037,   1785.18811
  10999,   2503.63037,   1788.18811
  11000,   2502.63037,   1787.18811
  11001,   2502.13037,   1742.18811
  11002,   2501.63037,   1741.18811
  11003,   2502.13037,   1740.18811
  11004,   2502.13037,   1744.18811
  11005,   2501.63037,   1743.18811
  11006,   2502.13037,   1746.18811
  11007,   2501.63037,   1745.18811
  11008,   2502.13037,   1748.18811
  11009,   2501.63037,   1747.18811
  11010,   2502.13037,   1750.18811
  11011,   2501.63037,   1749.18811
  11012,   2502.13037,   1752.18811
  11013,   2501.63037,   1751.18811
  11014,   2502.13037,   1754.18811
  11015,   2501.63037,   1753.18811
  11016,   2502.13037,   1756.18811
  11017,   2501.63037,   1755.18811
  11018,   2502.13037,   1758.18811
  11019,   2501.63037,   1757.18811
  11020,   2502.13037,   1760.18811
  11021,   2501.63037,   1759.18811
  11022,   2502.13037,   1762.18811
  11023,   2501.63037,   1761.18811
  11024,   2502.13037,   1764.18811
  11025,   2501.63037,   1763.18811
  11026,   2502.13037,   1766.18811
  11027,   2501.63037,   1765.18811
  11028,   2502.13037,   1768.18811
  11029,   2501.63037,   1767.18811
  11030,   2502.13037,   1770.18811
  11031,   2501.63037,   1769.18811
  11032,   2502.13037,   1772.18811
  11033,   2501.63037,   1771.18811
  11034,   2502.13037,   1774.18811
  11035,   2501.63037,   1773.18811
  11036,   2502.13037,   1776.18811
  11037,   2501.63037,   1775.18811
  11038,   2502.13037,   1778.18811
  11039,   2501.63037,   1777.18811
  11040,   2502.13037,   1780.18811
  11041,   2501.63037,   1779.18811
  11042,   2502.13037,   1782.18811
  11043,   2501.63037,   1781.18811
  11044,   2502.13037,   1784.18811
  11045,   2501.63037,   1783.18811
  11046,   2502.13037,   1786.18811
  11047,   2501.63037,   1785.18811
  11048,   2502.13037,   1788.18811
  11049,   2501.63037,   1787.18811
  11050,   2503.63037,   1790.18811
  11051,   2502.63037,   1789.18811
  11052,   2502.63037,   1791.18811
  11053,   2502.13037,   1790.18811
  11054,   2501.63037,   1789.18811
  11055,   2501.63037,   1791.18811
  11056,   2500.63037,   1791.18811
  11057,   2501.13037,   1790.18811
  11058,   2500.63037,   1789.18811
  11059,   2501.13037,   1788.18811
  11060,   2499.13037,   1790.18811
  11061,   2497.63037,   1789.18811
  11062,   2499.13037,   1788.18811
  11063,   2497.63037,   1791.18811
  11064,   2497.63037,   1787.18811
  11065,   2499.13037,   1786.18811
  11066,   2500.63037,   1787.18811
  11067,   2497.63037,   1785.18811
  11068,   2499.13037,   1784.18811
  11069,   2500.63037,   1785.18811
  11070,   2497.63037,   1783.18811
  11071,   2499.13037,   1782.18811
  11072,   2500.63037,   1783.18811
  11073,   2497.63037,   1781.18811
  11074,   2499.13037,   1780.18811
  11075,   2500.63037,   1781.18811
  11076,   2497.63037,   1779.18811
  11077,   2499.13037,   1778.18811
  11078,   2500.63037,   1779.18811
  11079,   2497.63037,   1777.18811
  11080,   2499.13037,   1776.18811
  11081,   2500.63037,   1777.18811
  11082,   2497.63037,   1775.18811
  11083,   2499.13037,   1774.18811
  11084,   2500.63037,   1775.18811
  11085,   2497.63037,   1773.18811
  11086,   2499.13037,   1772.18811
  11087,   2500.63037,   1773.18811
  11088,   2497.63037,   1771.18811
  11089,   2499.13037,   1770.18811
  11090,   2500.63037,   1771.18811
  11091,   2497.63037,   1769.18811
  11092,   2499.13037,   1768.18811
  11093,   2500.63037,   1769.18811
  11094,   2497.63037,   1767.18811
  11095,   2499.13037,   1766.18811
  11096,   2500.63037,   1767.18811
  11097,   2497.63037,   1765.18811
  11098,   2499.13037,   1764.18811
  11099,   2500.63037,   1765.18811
  11100,   2497.63037,   1763.18811
  11101,   2499.13037,   1762.18811
  11102,   2500.63037,   1763.18811
  11103,   2497.63037,   1761.18811
  11104,   2499.13037,   1760.18811
  11105,   2500.63037,   1761.18811
  11106,   2497.63037,   1759.18811
  11107,   2499.13037,   1758.18811
  11108,   2500.63037,   1759.18811
  11109,   2497.63037,   1757.18811
  11110,   2499.13037,   1756.18811
  11111,   2500.63037,   1757.18811
  11112,   2497.63037,   1755.18811
  11113,   2499.13037,   1754.18811
  11114,   2500.63037,   1755.18811
  11115,   2497.63037,   1753.18811
  11116,   2499.13037,   1752.18811
  11117,   2500.63037,   1753.18811
  11118,   2497.63037,   1751.18811
  11119,   2499.13037,   1750.18811
  11120,   2500.63037,   1751.18811
  11121,   2497.63037,   1749.18811
  11122,   2499.13037,   1748.18811
  11123,   2500.63037,   1749.18811
  11124,   2497.63037,   1747.18811
  11125,   2499.13037,   1746.18811
  11126,   2500.63037,   1747.18811
  11127,   2497.63037,   1745.18811
  11128,   2499.13037,   1744.18811
  11129,   2500.63037,   1745.18811
  11130,   2497.63037,   1743.18811
  11131,   2499.13037,   1742.18811
  11132,   2500.63037,   1743.18811
  11133,   2497.63037,   1741.18811
  11134,   2499.13037,   1740.18811
  11135,   2500.63037,   1741.18811
  11136,   2497.13037,   1788.18811
  11137,   2497.13037,   1790.18811
  11138,   2497.13037,   1786.18811
  11139,   2497.13037,   1784.18811
  11140,   2497.13037,   1782.18811
  11141,   2497.13037,   1780.18811
  11142,   2497.13037,   1778.18811
  11143,   2497.13037,   1776.18811
  11144,   2497.13037,   1774.18811
  11145,   2497.13037,   1772.18811
  11146,   2497.13037,   1770.18811
  11147,   2497.13037,   1768.18811
  11148,   2497.13037,   1766.18811
  11149,   2497.13037,   1764.18811
  11150,   2497.13037,   1762.18811
  11151,   2497.13037,   1760.18811
  11152,   2497.13037,   1758.18811
  11153,   2497.13037,   1756.18811
  11154,   2497.13037,   1754.18811
  11155,   2497.13037,   1752.18811
  11156,   2497.13037,   1750.18811
  11157,   2497.13037,   1748.18811
  11158,   2497.13037,   1746.18811
  11159,   2497.13037,   1744.18811
  11160,   2497.13037,   1742.18811
  11161,   2497.13037,   1740.18811
  11162,   2497.13037,   1738.18811
  11163,   2497.63037,   1739.18811
  11164,   2497.13037,   1736.18811
  11165,   2497.63037,   1737.18811
  11166,   2497.13037,   1734.18811
  11167,   2497.63037,   1735.18811
  11168,   2497.13037,   1732.18811
  11169,   2497.63037,   1733.18811
  11170,   2497.13037,   1730.18811
  11171,   2497.63037,   1731.18811
  11172,   2499.13037,   1698.18811
  11173,   2499.13037,   1700.18811
  11174,   2497.63037,   1699.18811
  11175,   2499.13037,   1702.18811
  11176,   2497.63037,   1701.18811
  11177,   2499.13037,   1704.18811
  11178,   2497.63037,   1703.18811
  11179,   2499.13037,   1706.18811
  11180,   2497.63037,   1705.18811
  11181,   2499.13037,   1708.18811
  11182,   2497.63037,   1707.18811
  11183,   2499.13037,   1710.18811
  11184,   2497.63037,   1709.18811
  11185,   2499.13037,   1712.18811
  11186,   2497.63037,   1711.18811
  11187,   2499.13037,   1714.18811
  11188,   2497.63037,   1713.18811
  11189,   2499.13037,   1716.18811
  11190,   2497.63037,   1715.18811
  11191,   2499.13037,   1718.18811
  11192,   2497.63037,   1717.18811
  11193,   2499.13037,   1720.18811
  11194,   2497.63037,   1719.18811
  11195,   2499.13037,   1722.18811
  11196,   2497.63037,   1721.18811
  11197,   2499.13037,   1724.18811
  11198,   2497.63037,   1723.18811
  11199,   2499.13037,   1726.18811
  11200,   2497.63037,   1725.18811
  11201,   2499.13037,   1728.18811
  11202,   2497.63037,   1727.18811
  11203,   2499.13037,   1730.18811
  11204,   2497.63037,   1729.18811
  11205,   2497.13037,   1728.18811
  11206,   2497.13037,   1726.18811
  11207,   2497.13037,   1724.18811
  11208,   2497.13037,   1722.18811
  11209,   2497.13037,   1720.18811
  11210,   2497.13037,   1718.18811
  11211,   2497.13037,   1716.18811
  11212,   2497.13037,   1714.18811
  11213,   2497.13037,   1712.18811
  11214,   2497.13037,   1710.18811
  11215,   2497.13037,   1708.18811
  11216,   2497.13037,   1706.18811
  11217,   2497.13037,   1704.18811
  11218,   2497.13037,   1702.18811
  11219,   2497.13037,   1700.18811
  11220,   2497.13037,   1698.18811
  11221,   2497.63037,   1697.68811
  11222,   2499.13037,   1697.18811
  11223,   2497.13037,   1697.18811
  11224,   2497.63037,   1696.43811
  11225,   2499.13037,   1695.68811
  11226,   2497.63037,   1694.93811
  11227,   2499.13037,   1694.18811
  11228,   2497.13037,   1695.68811
  11229,   2497.13037,   1694.18811
  11230,   2499.13037,   1693.18811
  11231,   2497.63037,   1693.68811
  11232,   2497.13037,   1693.18811
  11233,   2497.63037,   1692.68811
  11234,   2499.13037,   1692.18811
  11235,   2497.63037,   1689.18811
  11236,   2499.13037,   1690.18811
  11237,   2497.13037,   1692.18811
  11238,   2497.63037,   1691.18811
  11239,   2497.13037,   1690.18811
  11240,   2496.63037,   1689.18811
  11241,   2496.63037,   1691.18811
  11242,   2496.13037,   1690.18811
  11243,   2495.63037,   1689.18811
  11244,   2495.63037,   1691.18811
  11245,   2494.63037,   1690.18811
  11246,   2493.63037,   1689.18811
  11247,   2492.63037,   1690.18811
  11248,   2491.63037,   1689.18811
  11249,   2493.63037,   1691.18811
  11250,   2491.63037,   1691.18811
  11251,   2491.13037,   1690.18811
  11252,   2490.63037,   1689.18811
  11253,   2490.63037,   1691.18811
  11254,   2489.63037,   1690.18811
  11255,   2488.63037,   1689.18811
  11256,   2487.63037,   1690.18811
  11257,   2486.63037,   1689.18811
  11258,   2485.63037,   1690.18811
  11259,   2484.63037,   1689.18811
  11260,   2483.63037,   1690.18811
  11261,   2482.63037,   1689.18811
  11262,   2481.63037,   1690.18811
  11263,   2480.63037,   1689.18811
  11264,   2479.63037,   1690.18811
  11265,   2478.63037,   1689.18811
  11266,   2477.63037,   1690.18811
  11267,   2476.63037,   1689.18811
  11268,   2475.63037,   1690.18811
  11269,   2474.63037,   1689.18811
  11270,   2473.63037,   1690.18811
  11271,   2472.63037,   1689.18811
  11272,   2471.63037,   1690.18811
  11273,   2470.63037,   1689.18811
  11274,   2488.63037,   1691.18811
  11275,   2486.63037,   1691.18811
  11276,   2484.63037,   1691.18811
  11277,   2482.63037,   1691.18811
  11278,   2480.63037,   1691.18811
  11279,   2478.63037,   1691.18811
  11280,   2476.63037,   1691.18811
  11281,   2474.63037,   1691.18811
  11282,   2472.63037,   1691.18811
  11283,   2470.63037,   1691.18811
  11284,   2470.13037,   1690.18811
  11285,   2469.63037,   1689.18811
  11286,   2469.63037,   1691.18811
  11287,   2465.63037,   1689.18811
  11288,   2467.63037,   1689.18811
  11289,   2466.63037,   1690.18811
  11290,   2468.63037,   1690.18811
  11291,   2465.63037,   1691.18811
  11292,   2467.63037,   1691.18811
  11293,   2464.63037,   1689.18811
  11294,   2465.13037,   1690.18811
  11295,   2464.63037,   1691.18811
  11296,   2463.88037,   1690.18811
  11297,   2463.13037,   1689.18811
  11298,   2462.38037,   1690.18811
  11299,   2463.88037,   1692.18811
  11300,   2463.13037,   1691.18811
  11301,   2462.38037,   1692.18811
  11302,   2463.88037,   1693.18811
  11303,   2463.13037,   1692.68811
  11304,   2462.38037,   1693.18811
  11305,   2463.13037,   1693.68811
  11306,   2462.38037,   1694.18811
  11307,   2463.88037,   1694.18811
  11308,   2463.13037,   1694.93811
  11309,   2462.38037,   1695.68811
  11310,   2463.88037,   1695.68811
  11311,   2463.13037,   1696.43811
  11312,   2462.38037,   1697.18811
  11313,   2463.88037,   1697.18811
  11314,   2463.88037,   1698.18811
  11315,   2463.13037,   1697.68811
  11316,   2462.38037,   1698.18811
  11317,   2463.88037,   1738.18811
  11318,   2463.13037,   1737.18811
  11319,   2463.88037,   1736.18811
  11320,   2462.38037,   1738.18811
  11321,   2462.38037,   1736.18811
  11322,   2463.13037,   1735.18811
  11323,   2463.88037,   1734.18811
  11324,   2462.38037,   1734.18811
  11325,   2463.13037,   1733.18811
  11326,   2463.88037,   1732.18811
  11327,   2462.38037,   1732.18811
  11328,   2463.13037,   1731.18811
  11329,   2463.88037,   1730.18811
  11330,   2462.38037,   1730.18811
  11331,   2463.13037,   1729.18811
  11332,   2463.88037,   1728.18811
  11333,   2462.38037,   1728.18811
  11334,   2463.13037,   1727.18811
  11335,   2463.88037,   1726.18811
  11336,   2462.38037,   1726.18811
  11337,   2463.13037,   1725.18811
  11338,   2463.88037,   1724.18811
  11339,   2462.38037,   1724.18811
  11340,   2463.13037,   1723.18811
  11341,   2463.88037,   1722.18811
  11342,   2462.38037,   1722.18811
  11343,   2463.13037,   1721.18811
  11344,   2463.88037,   1720.18811
  11345,   2462.38037,   1720.18811
  11346,   2463.13037,   1719.18811
  11347,   2463.88037,   1718.18811
  11348,   2462.38037,   1718.18811
  11349,   2463.13037,   1717.18811
  11350,   2463.88037,   1716.18811
  11351,   2462.38037,   1716.18811
  11352,   2463.13037,   1715.18811
  11353,   2463.88037,   1714.18811
  11354,   2462.38037,   1714.18811
  11355,   2463.13037,   1713.18811
  11356,   2463.88037,   1712.18811
  11357,   2462.38037,   1712.18811
  11358,   2463.13037,   1711.18811
  11359,   2463.88037,   1710.18811
  11360,   2462.38037,   1710.18811
  11361,   2463.13037,   1709.18811
  11362,   2463.88037,   1708.18811
  11363,   2462.38037,   1708.18811
  11364,   2463.13037,   1707.18811
  11365,   2463.88037,   1706.18811
  11366,   2462.38037,   1706.18811
  11367,   2463.13037,   1705.18811
  11368,   2463.88037,   1704.18811
  11369,   2462.38037,   1704.18811
  11370,   2463.13037,   1703.18811
  11371,   2463.88037,   1702.18811
  11372,   2462.38037,   1702.18811
  11373,   2463.13037,   1701.18811
  11374,   2463.88037,   1700.18811
  11375,   2462.38037,   1700.18811
  11376,   2463.13037,   1699.18811
  11377,   2461.63037,   1741.18811
  11378,   2462.38037,   1740.18811
  11379,   2463.13037,   1741.18811
  11380,   2461.63037,   1739.18811
  11381,   2463.13037,   1739.18811
  11382,   2463.88037,   1740.18811
  11383,   2461.13037,   1740.18811
  11384,   2460.63037,   1739.18811
  11385,   2461.13037,   1742.18811
  11386,   2460.63037,   1741.18811
  11387,   2459.63037,   1740.18811
  11388,   2458.63037,   1739.18811
  11389,   2459.63037,   1738.18811
  11390,   2458.63037,   1741.18811
  11391,   2457.63037,   1740.18811
  11392,   2457.63037,   1738.18811
  11393,   2457.63037,   1698.18811
  11394,   2458.63037,   1699.18811
  11395,   2457.63037,   1700.18811
  11396,   2459.63037,   1698.18811
  11397,   2459.63037,   1700.18811
  11398,   2458.63037,   1701.18811
  11399,   2457.63037,   1702.18811
  11400,   2459.63037,   1702.18811
  11401,   2458.63037,   1703.18811
  11402,   2457.63037,   1704.18811
  11403,   2459.63037,   1704.18811
  11404,   2458.63037,   1705.18811
  11405,   2457.63037,   1706.18811
  11406,   2459.63037,   1706.18811
  11407,   2458.63037,   1707.18811
  11408,   2457.63037,   1708.18811
  11409,   2459.63037,   1708.18811
  11410,   2458.63037,   1709.18811
  11411,   2457.63037,   1710.18811
  11412,   2459.63037,   1710.18811
  11413,   2458.63037,   1711.18811
  11414,   2457.63037,   1712.18811
  11415,   2459.63037,   1712.18811
  11416,   2458.63037,   1713.18811
  11417,   2457.63037,   1714.18811
  11418,   2459.63037,   1714.18811
  11419,   2458.63037,   1715.18811
  11420,   2457.63037,   1716.18811
  11421,   2459.63037,   1716.18811
  11422,   2458.63037,   1717.18811
  11423,   2457.63037,   1718.18811
  11424,   2459.63037,   1718.18811
  11425,   2458.63037,   1719.18811
  11426,   2457.63037,   1720.18811
  11427,   2459.63037,   1720.18811
  11428,   2458.63037,   1721.18811
  11429,   2457.63037,   1722.18811
  11430,   2459.63037,   1722.18811
  11431,   2458.63037,   1723.18811
  11432,   2457.63037,   1724.18811
  11433,   2459.63037,   1724.18811
  11434,   2458.63037,   1725.18811
  11435,   2457.63037,   1726.18811
  11436,   2459.63037,   1726.18811
  11437,   2458.63037,   1727.18811
  11438,   2457.63037,   1728.18811
  11439,   2459.63037,   1728.18811
  11440,   2458.63037,   1729.18811
  11441,   2457.63037,   1730.18811
  11442,   2459.63037,   1730.18811
  11443,   2458.63037,   1731.18811
  11444,   2457.63037,   1732.18811
  11445,   2459.63037,   1732.18811
  11446,   2458.63037,   1733.18811
  11447,   2457.63037,   1734.18811
  11448,   2459.63037,   1734.18811
  11449,   2458.63037,   1735.18811
  11450,   2457.63037,   1736.18811
  11451,   2459.63037,   1736.18811
  11452,   2458.63037,   1737.18811
  11453,   2458.63037,   1697.68811
  11454,   2459.63037,   1697.18811
  11455,   2457.63037,   1697.18811
  11456,   2457.63037,   1694.18811
  11457,   2458.63037,   1694.93811
  11458,   2457.63037,   1695.68811
  11459,   2459.63037,   1694.18811
  11460,   2459.63037,   1695.68811
  11461,   2458.63037,   1696.43811
  11462,   2457.63037,   1693.18811
  11463,   2458.63037,   1693.68811
  11464,   2459.63037,   1693.18811
  11465,   2458.63037,   1692.68811
  11466,   2459.63037,   1692.18811
  11467,   2457.63037,   1692.18811
  11468,   2456.63037,   1689.18811
  11469,   2458.63037,   1689.18811
  11470,   2457.63037,   1690.18811
  11471,   2459.63037,   1690.18811
  11472,   2458.63037,   1691.18811
  11473,   2456.63037,   1691.18811
  11474,   2456.13037,   1690.18811
  11475,   2455.63037,   1689.18811
  11476,   2455.63037,   1691.18811
  11477,   2454.63037,   1690.18811
  11478,   2453.63037,   1689.18811
  11479,   2452.63037,   1690.18811
  11480,   2451.63037,   1689.18811
  11481,   2453.63037,   1691.18811
  11482,   2451.63037,   1691.18811
  11483,   2450.63037,   1689.18811
  11484,   2451.13037,   1690.18811
  11485,   2450.63037,   1691.18811
  11486,   2440.63037,   1689.18811
  11487,   2442.63037,   1689.18811
  11488,   2441.63037,   1690.18811
  11489,   2444.63037,   1689.18811
  11490,   2443.63037,   1690.18811
  11491,   2446.63037,   1689.18811
  11492,   2445.63037,   1690.18811
  11493,   2448.63037,   1689.18811
  11494,   2447.63037,   1690.18811
  11495,   2449.63037,   1690.18811
  11496,   2440.63037,   1691.18811
  11497,   2442.63037,   1691.18811
  11498,   2444.63037,   1691.18811
  11499,   2446.63037,   1691.18811
  11500,   2448.63037,   1691.18811
  11501,   2430.63037,   1689.18811
  11502,   2432.63037,   1689.18811
  11503,   2431.63037,   1690.18811
  11504,   2434.63037,   1689.18811
  11505,   2433.63037,   1690.18811
  11506,   2436.63037,   1689.18811
  11507,   2435.63037,   1690.18811
  11508,   2438.63037,   1689.18811
  11509,   2437.63037,   1690.18811
  11510,   2439.63037,   1690.18811
  11511,   2430.63037,   1691.18811
  11512,   2432.63037,   1691.18811
  11513,   2434.63037,   1691.18811
  11514,   2436.63037,   1691.18811
  11515,   2438.63037,   1691.18811
  11516,   2429.63037,   1689.18811
  11517,   2430.13037,   1690.18811
  11518,   2429.63037,   1691.18811
  11519,   2425.63037,   1689.18811
  11520,   2427.63037,   1689.18811
  11521,   2426.63037,   1690.18811
  11522,   2428.63037,   1690.18811
  11523,   2425.63037,   1691.18811
  11524,   2427.63037,   1691.18811
  11525,   2424.63037,   1689.18811
  11526,   2425.13037,   1688.18811
  11527,   2425.13037,   1690.18811
  11528,   2424.63037,   1691.18811
  11529,   2420.63037,   1689.18811
  11530,   2422.63037,   1689.18811
  11531,   2421.63037,   1690.18811
  11532,   2423.63037,   1690.18811
  11533,   2420.63037,   1691.18811
  11534,   2422.63037,   1691.18811
  11535,   2419.63037,   1689.18811
  11536,   2420.13037,   1690.18811
  11537,   2419.63037,   1691.18811
  11538,   2415.63037,   1689.18811
  11539,   2417.63037,   1689.18811
  11540,   2416.63037,   1690.18811
  11541,   2418.63037,   1690.18811
  11542,   2415.63037,   1691.18811
  11543,   2417.63037,   1691.18811
  11544,   2414.63037,   1689.18811
  11545,   2415.13037,   1690.18811
  11546,   2408.63037,   1698.18811
  11547,   2407.63037,   1697.68811
  11548,   2408.63037,   1697.18811
  11549,   2406.63037,   1698.18811
  11550,   2406.63037,   1697.18811
  11551,   2414.63037,   1691.18811
  11552,   2407.63037,   1696.43811
  11553,   2408.63037,   1695.68811
  11554,   2406.63037,   1695.68811
  11555,   2407.63037,   1694.93811
  11556,   2408.63037,   1694.18811
  11557,   2406.63037,   1694.18811
  11558,   2410.63037,   1689.18811
  11559,   2412.63037,   1689.18811
  11560,   2411.63037,   1690.18811
  11561,   2413.63037,   1690.18811
  11562,   2408.63037,   1743.18811
  11563,   2407.63037,   1742.20984
  11564,   2408.63037,   1741.23157
  11565,   2406.63037,   1743.18811
  11566,   2406.63037,   1741.23157
  11567,   2407.63037,    1740.2533
  11568,   2408.63037,   1739.27502
  11569,   2406.63037,   1739.27502
  11570,   2407.63037,   1738.29675
  11571,   2408.63037,   1737.31848
  11572,   2406.63037,   1737.31848
  11573,   2407.63037,   1736.34033
  11574,   2408.63037,   1735.36206
  11575,   2406.63037,   1735.36206
  11576,   2407.63037,   1734.38379
  11577,   2408.63037,   1733.40552
  11578,   2406.63037,   1733.40552
  11579,   2407.63037,   1732.42725
  11580,   2408.63037,   1731.44897
  11581,   2406.63037,   1731.44897
  11582,   2407.63037,    1730.4707
  11583,   2408.63037,   1729.49243
  11584,   2406.63037,   1729.49243
  11585,   2407.63037,   1728.51416
  11586,   2408.63037,   1727.53589
  11587,   2406.63037,   1727.53589
  11588,   2407.63037,   1726.55762
  11589,   2408.63037,   1725.57947
  11590,   2406.63037,   1725.57947
  11591,   2407.63037,    1724.6012
  11592,   2408.63037,   1723.62292
  11593,   2406.63037,   1723.62292
  11594,   2407.63037,   1722.64465
  11595,   2408.63037,   1721.66638
  11596,   2406.63037,   1721.66638
  11597,   2407.63037,   1720.68811
  11598,   2408.63037,   1719.70984
  11599,   2406.63037,   1719.70984
  11600,   2407.63037,   1718.73157
  11601,   2408.63037,    1717.7533
  11602,   2406.63037,    1717.7533
  11603,   2407.63037,   1716.77502
  11604,   2408.63037,   1715.79675
  11605,   2406.63037,   1715.79675
  11606,   2407.63037,    1714.8186
  11607,   2408.63037,   1713.84033
  11608,   2406.63037,   1713.84033
  11609,   2407.63037,   1712.86206
  11610,   2408.63037,   1711.88379
  11611,   2406.63037,   1711.88379
  11612,   2407.63037,   1710.90552
  11613,   2408.63037,   1709.92725
  11614,   2406.63037,   1709.92725
  11615,   2407.63037,   1708.94897
  11616,   2408.63037,    1707.9707
  11617,   2406.63037,    1707.9707
  11618,   2407.63037,   1706.99243
  11619,   2408.63037,   1706.01416
  11620,   2406.63037,   1706.01416
  11621,   2407.63037,   1705.03589
  11622,   2408.63037,   1704.05762
  11623,   2406.63037,   1704.05762
  11624,   2407.63037,   1703.07935
  11625,   2408.63037,    1702.1012
  11626,   2406.63037,    1702.1012
  11627,   2407.63037,   1701.12292
  11628,   2408.63037,   1700.14465
  11629,   2406.63037,   1700.14465
  11630,   2407.63037,   1699.16638
  11631,   2410.63037,   1691.18811
  11632,   2412.63037,   1691.18811
  11633,   2406.63037,   1693.18811
  11634,   2407.63037,   1693.68811
  11635,   2408.63037,   1693.18811
  11636,   2409.63037,   1689.18811
  11637,   2410.13037,   1690.18811
  11638,   2407.63037,   1744.18811
  11639,   2406.63037,   1745.18811
  11640,   2405.63037,   1744.18811
  11641,   2408.63037,   1745.18811
  11642,   2407.63037,   1746.18811
  11643,   2406.63037,   1747.18811
  11644,   2405.63037,   1746.18811
  11645,   2408.63037,   1747.18811
  11646,   2409.63037,   1691.18811
  11647,   2407.63037,   1692.68811
  11648,   2408.63037,   1692.18811
  11649,   2406.63037,   1692.18811
  11650,   2405.63037,   1689.18811
  11651,   2407.63037,   1689.18811
  11652,   2406.63037,   1690.18811
  11653,   2408.63037,   1690.18811
  11654,   2407.63037,   1747.68811
  11655,   2406.63037,   1748.18811
  11656,   2408.63037,   1748.18811
  11657,   2407.63037,   1691.18811
  11658,   2405.63037,   1691.18811
  11659,   2404.63037,   1689.18811
  11660,   2405.13037,   1690.18811
  11661,   2401.63037,   1693.18811
  11662,   2402.63037,   1693.68811
  11663,   2401.63037,   1694.18811
  11664,   2403.63037,   1693.18811
  11665,   2403.63037,   1694.18811
  11666,   2407.63037,   1749.18811
  11667,   2406.63037,   1750.18811
  11668,   2408.63037,   1750.18811
  11669,   2407.63037,   1751.18811
  11670,   2406.63037,   1752.18811
  11671,   2408.63037,   1752.18811
  11672,   2404.63037,   1691.18811
  11673,   2402.63037,   1692.68811
  11674,   2403.63037,   1692.18811
  11675,   2401.63037,   1692.18811
  11676,   2400.63037,   1689.18811
  11677,   2402.63037,   1689.18811
  11678,   2401.63037,   1690.18811
  11679,   2403.63037,   1690.18811
  11680,   2403.63037,   1697.18811
  11681,   2402.63037,   1696.43811
  11682,   2403.63037,   1695.68811
  11683,   2401.63037,   1697.18811
  11684,   2401.63037,   1695.68811
  11685,   2402.63037,   1694.93811
  11686,   2407.63037,   1752.68811
  11687,   2406.63037,   1753.18811
  11688,   2408.63037,   1753.18811
  11689,   2402.63037,   1691.18811
  11690,   2400.63037,   1691.18811
  11691,   2400.13037,   1690.18811
  11692,   2399.63037,   1689.18811
  11693,   2403.63037,   1698.18811
  11694,   2402.63037,   1697.68811
  11695,   2401.63037,   1698.18811
  11696,   2407.63037,   1754.18811
  11697,   2406.63037,   1755.18811
  11698,   2405.63037,   1754.18811
  11699,   2408.63037,   1755.18811
  11700,   2407.63037,   1756.18811
  11701,   2405.63037,   1756.18811
  11702,   2399.63037,   1691.18811
  11703,   2398.63037,   1690.18811
  11704,   2397.63037,   1689.18811
  11705,   2396.63037,   1690.18811
  11706,   2403.63037,   1743.18811
  11707,   2402.63037,   1742.20984
  11708,   2403.63037,   1741.23157
  11709,   2401.63037,   1743.18811
  11710,   2401.63037,   1741.23157
  11711,   2402.63037,    1740.2533
  11712,   2403.63037,   1739.27502
  11713,   2401.63037,   1739.27502
  11714,   2402.63037,   1738.29675
  11715,   2403.63037,   1737.31848
  11716,   2401.63037,   1737.31848
  11717,   2402.63037,   1736.34033
  11718,   2403.63037,   1735.36206
  11719,   2401.63037,   1735.36206
  11720,   2402.63037,   1734.38379
  11721,   2403.63037,   1733.40552
  11722,   2401.63037,   1733.40552
  11723,   2402.63037,   1732.42725
  11724,   2403.63037,   1731.44897
  11725,   2401.63037,   1731.44897
  11726,   2402.63037,    1730.4707
  11727,   2403.63037,   1729.49243
  11728,   2401.63037,   1729.49243
  11729,   2402.63037,   1728.51416
  11730,   2403.63037,   1727.53589
  11731,   2401.63037,   1727.53589
  11732,   2402.63037,   1726.55762
  11733,   2403.63037,   1725.57947
  11734,   2401.63037,   1725.57947
  11735,   2402.63037,    1724.6012
  11736,   2403.63037,   1723.62292
  11737,   2401.63037,   1723.62292
  11738,   2402.63037,   1722.64465
  11739,   2403.63037,   1721.66638
  11740,   2401.63037,   1721.66638
  11741,   2402.63037,   1720.68811
  11742,   2403.63037,   1719.70984
  11743,   2401.63037,   1719.70984
  11744,   2402.63037,   1718.73157
  11745,   2403.63037,    1717.7533
  11746,   2401.63037,    1717.7533
  11747,   2402.63037,   1716.77502
  11748,   2403.63037,   1715.79675
  11749,   2401.63037,   1715.79675
  11750,   2402.63037,    1714.8186
  11751,   2403.63037,   1713.84033
  11752,   2401.63037,   1713.84033
  11753,   2402.63037,   1712.86206
  11754,   2403.63037,   1711.88379
  11755,   2401.63037,   1711.88379
  11756,   2402.63037,   1710.90552
  11757,   2403.63037,   1709.92725
  11758,   2401.63037,   1709.92725
  11759,   2402.63037,   1708.94897
  11760,   2403.63037,    1707.9707
  11761,   2401.63037,    1707.9707
  11762,   2402.63037,   1706.99243
  11763,   2403.63037,   1706.01416
  11764,   2401.63037,   1706.01416
  11765,   2402.63037,   1705.03589
  11766,   2403.63037,   1704.05762
  11767,   2401.63037,   1704.05762
  11768,   2402.63037,   1703.07935
  11769,   2403.63037,    1702.1012
  11770,   2401.63037,    1702.1012
  11771,   2402.63037,   1701.12292
  11772,   2403.63037,   1700.14465
  11773,   2401.63037,   1700.14465
  11774,   2402.63037,   1699.16638
  11775,   2405.13037,   1755.18811
  11776,   2404.63037,   1754.18811
  11777,   2404.63037,   1756.18811
  11778,   2398.63037,   1692.18811
  11779,   2397.63037,   1691.18811
  11780,   2396.63037,   1692.18811
  11781,   2402.63037,   1744.18811
  11782,   2401.63037,   1745.18811
  11783,   2400.63037,   1744.18811
  11784,   2404.63037,   1744.18811
  11785,   2403.63037,   1745.18811
  11786,   2402.63037,   1746.18811
  11787,   2401.63037,   1747.18811
  11788,   2400.63037,   1746.18811
  11789,   2404.63037,   1746.18811
  11790,   2403.63037,   1747.18811
  11791,   2403.63037,   1755.18811
  11792,   2402.63037,   1754.18811
  11793,   2402.63037,   1756.18811
  11794,   2401.63037,   1755.18811
  11795,   2400.63037,   1754.18811
  11796,   2400.63037,   1756.18811
  11797,   2398.63037,   1693.18811
  11798,   2397.63037,   1692.68811
  11799,   2396.63037,   1693.18811
  11800,   2402.63037,   1747.68811
  11801,   2401.63037,   1748.18811
  11802,   2403.63037,   1748.18811
  11803,   2400.13037,   1755.18811
  11804,   2399.63037,   1754.18811
  11805,   2399.63037,   1756.18811
  11806,   2397.63037,   1693.68811
  11807,   2396.63037,   1694.18811
  11808,   2398.63037,   1694.18811
  11809,   2402.63037,   1749.18811
  11810,   2401.63037,   1750.18811
  11811,   2400.63037,   1749.18811
  11812,   2403.63037,   1750.18811
  11813,   2402.63037,   1751.18811
  11814,   2400.63037,   1751.18811
  11815,   2398.63037,   1755.18811
  11816,   2397.63037,   1754.18811
  11817,   2397.63037,   1756.18811
  11818,   2396.63037,   1755.18811
  11819,   2395.63037,   1754.18811
  11820,   2395.63037,   1756.18811
  11821,   2398.63037,   1697.18811
  11822,   2397.63037,   1696.43811
  11823,   2398.63037,   1695.68811
  11824,   2396.63037,   1697.18811
  11825,   2396.63037,   1695.68811
  11826,   2397.63037,   1694.93811
  11827,   2400.13037,   1750.18811
  11828,   2399.63037,   1749.18811
  11829,   2399.63037,   1751.18811
  11830,   2395.13037,   1755.18811
  11831,   2394.63037,   1754.18811
  11832,   2394.63037,   1756.18811
  11833,   2398.63037,   1698.18811
  11834,   2397.63037,   1697.68811
  11835,   2396.63037,   1698.18811
  11836,   2398.63037,   1750.18811
  11837,   2397.63037,   1749.18811
  11838,   2397.63037,   1751.18811
  11839,   2396.63037,   1750.18811
  11840,   2395.63037,   1749.18811
  11841,   2395.63037,   1751.18811
  11842,   2392.63037,   1756.18811
  11843,   2393.63037,   1755.18811
  11844,   2392.63037,   1754.18811
  11845,   2398.63037,   1743.18811
  11846,   2397.63037,   1742.20984
  11847,   2398.63037,   1741.23157
  11848,   2396.63037,   1743.18811
  11849,   2396.63037,   1741.23157
  11850,   2397.63037,    1740.2533
  11851,   2398.63037,   1739.27502
  11852,   2396.63037,   1739.27502
  11853,   2397.63037,   1738.29675
  11854,   2398.63037,   1737.31848
  11855,   2396.63037,   1737.31848
  11856,   2397.63037,   1736.34033
  11857,   2398.63037,   1735.36206
  11858,   2396.63037,   1735.36206
  11859,   2397.63037,   1734.38379
  11860,   2398.63037,   1733.40552
  11861,   2396.63037,   1733.40552
  11862,   2397.63037,   1732.42725
  11863,   2398.63037,   1731.44897
  11864,   2396.63037,   1731.44897
  11865,   2397.63037,    1730.4707
  11866,   2398.63037,   1729.49243
  11867,   2396.63037,   1729.49243
  11868,   2397.63037,   1728.51416
  11869,   2398.63037,   1727.53589
  11870,   2396.63037,   1727.53589
  11871,   2397.63037,   1726.55762
  11872,   2398.63037,   1725.57947
  11873,   2396.63037,   1725.57947
  11874,   2397.63037,    1724.6012
  11875,   2398.63037,   1723.62292
  11876,   2396.63037,   1723.62292
  11877,   2397.63037,   1722.64465
  11878,   2398.63037,   1721.66638
  11879,   2396.63037,   1721.66638
  11880,   2397.63037,   1720.68811
  11881,   2398.63037,   1719.70984
  11882,   2396.63037,   1719.70984
  11883,   2397.63037,   1718.73157
  11884,   2398.63037,    1717.7533
  11885,   2396.63037,    1717.7533
  11886,   2397.63037,   1716.77502
  11887,   2398.63037,   1715.79675
  11888,   2396.63037,   1715.79675
  11889,   2397.63037,    1714.8186
  11890,   2398.63037,   1713.84033
  11891,   2396.63037,   1713.84033
  11892,   2397.63037,   1712.86206
  11893,   2398.63037,   1711.88379
  11894,   2396.63037,   1711.88379
  11895,   2397.63037,   1710.90552
  11896,   2398.63037,   1709.92725
  11897,   2396.63037,   1709.92725
  11898,   2397.63037,   1708.94897
  11899,   2398.63037,    1707.9707
  11900,   2396.63037,    1707.9707
  11901,   2397.63037,   1706.99243
  11902,   2398.63037,   1706.01416
  11903,   2396.63037,   1706.01416
  11904,   2397.63037,   1705.03589
  11905,   2398.63037,   1704.05762
  11906,   2396.63037,   1704.05762
  11907,   2397.63037,   1703.07935
  11908,   2398.63037,    1702.1012
  11909,   2396.63037,    1702.1012
  11910,   2397.63037,   1701.12292
  11911,   2398.63037,   1700.14465
  11912,   2396.63037,   1700.14465
  11913,   2397.63037,   1699.16638
  11914,   2395.13037,   1750.18811
  11915,   2394.63037,   1749.18811
  11916,   2394.63037,   1751.18811
  11917,   2391.63037,   1756.18811
  11918,   2392.13037,   1755.18811
  11919,   2391.63037,   1754.18811
  11920,   2397.63037,   1744.18811
  11921,   2396.63037,   1745.18811
  11922,   2395.63037,   1744.18811
  11923,   2399.63037,   1744.18811
  11924,   2398.63037,   1745.18811
  11925,   2397.63037,   1746.18811
  11926,   2395.63037,   1746.18811
  11927,   2399.63037,   1746.18811
  11928,   2392.63037,   1751.18811
  11929,   2393.63037,   1750.18811
  11930,   2392.63037,   1749.18811
  11931,   2389.63037,   1756.18811
  11932,   2390.63037,   1755.18811
  11933,   2389.63037,   1754.18811
  11934,   2395.13037,   1745.18811
  11935,   2394.63037,   1744.18811
  11936,   2394.63037,   1746.18811
  11937,   2391.63037,   1751.18811
  11938,   2392.13037,   1750.18811
  11939,   2391.63037,   1749.18811
  11940,   2385.63037,   1756.18811
  11941,   2386.63037,   1755.18811
  11942,   2387.63037,   1756.18811
  11943,   2385.63037,   1754.18811
  11944,   2387.63037,   1754.18811
  11945,   2388.63037,   1755.18811
  11946,   2392.63037,   1746.18811
  11947,   2393.63037,   1745.18811
  11948,   2392.63037,   1744.18811
  11949,   2389.63037,   1751.18811
  11950,   2390.63037,   1750.18811
  11951,   2389.63037,   1749.18811
  11952,   2374.63037,   1756.18811
  11953,   2375.54688,   1755.18811
  11954,   2376.46362,   1756.18811
  11955,   2374.63037,   1754.18811
  11956,   2376.46362,   1754.18811
  11957,   2377.38037,   1755.18811
  11958,   2378.29712,   1756.18811
  11959,   2378.29712,   1754.18811
  11960,   2379.21387,   1755.18811
  11961,   2380.13037,   1756.18811
  11962,   2380.13037,   1754.18811
  11963,   2381.04688,   1755.18811
  11964,   2381.96362,   1756.18811
  11965,   2381.96362,   1754.18811
  11966,   2382.88037,   1755.18811
  11967,   2383.79712,   1756.18811
  11968,   2383.79712,   1754.18811
  11969,   2384.71387,   1755.18811
  11970,   2391.63037,   1746.18811
  11971,   2392.13037,   1745.18811
  11972,   2391.63037,   1744.18811
  11973,   2385.63037,   1751.18811
  11974,   2386.63037,   1750.18811
  11975,   2387.63037,   1751.18811
  11976,   2385.63037,   1749.18811
  11977,   2387.63037,   1749.18811
  11978,   2388.63037,   1750.18811
  11979,   2370.63037,   1756.18811
  11980,   2371.63037,   1755.18811
  11981,   2372.63037,   1756.18811
  11982,   2370.63037,   1754.18811
  11983,   2372.63037,   1754.18811
  11984,   2373.63037,   1755.18811
  11985,   2389.63037,   1746.18811
  11986,   2390.63037,   1745.18811
  11987,   2389.63037,   1744.18811
  11988,   2374.63037,   1751.18811
  11989,   2375.54688,   1750.18811
  11990,   2376.46362,   1751.18811
  11991,   2374.63037,   1749.18811
  11992,   2376.46362,   1749.18811
  11993,   2377.38037,   1750.18811
  11994,   2378.29712,   1751.18811
  11995,   2378.29712,   1749.18811
  11996,   2379.21387,   1750.18811
  11997,   2380.13037,   1751.18811
  11998,   2380.13037,   1749.18811
  11999,   2381.04688,   1750.18811
  12000,   2381.96362,   1751.18811
  12001,   2381.96362,   1749.18811
  12002,   2382.88037,   1750.18811
  12003,   2383.79712,   1751.18811
  12004,   2383.79712,   1749.18811
  12005,   2384.71387,   1750.18811
  12006,   2369.63037,   1755.18811
  12007,   2368.63037,   1754.18811
  12008,   2369.63037,   1753.18811
  12009,   2368.63037,   1756.18811
  12010,   2367.63037,   1755.18811
  12011,   2367.63037,   1753.18811
  12012,   2385.63037,   1746.18811
  12013,   2386.63037,   1745.18811
  12014,   2387.63037,   1746.18811
  12015,   2385.63037,   1744.18811
  12016,   2387.63037,   1744.18811
  12017,   2388.63037,   1745.18811
  12018,   2370.63037,   1751.18811
  12019,   2371.63037,   1750.18811
  12020,   2372.63037,   1751.18811
  12021,   2370.63037,   1749.18811
  12022,   2372.63037,   1749.18811
  12023,   2373.63037,   1750.18811
  12024,   2368.63037,   1752.68811
  12025,   2369.63037,   1752.18811
  12026,   2367.63037,   1752.18811
  12027,   2374.63037,   1746.18811
  12028,   2375.54688,   1745.18811
  12029,   2376.46362,   1746.18811
  12030,   2374.63037,   1744.18811
  12031,   2376.46362,   1744.18811
  12032,   2377.38037,   1745.18811
  12033,   2378.29712,   1746.18811
  12034,   2378.29712,   1744.18811
  12035,   2379.21387,   1745.18811
  12036,   2380.13037,   1746.18811
  12037,   2380.13037,   1744.18811
  12038,   2381.04688,   1745.18811
  12039,   2381.96362,   1746.18811
  12040,   2381.96362,   1744.18811
  12041,   2382.88037,   1745.18811
  12042,   2383.79712,   1746.18811
  12043,   2383.79712,   1744.18811
  12044,   2384.71387,   1745.18811
  12045,   2368.63037,   1751.18811
  12046,   2369.63037,   1750.18811
  12047,   2367.63037,   1750.18811
  12048,   2368.63037,   1749.18811
  12049,   2369.63037,   1748.18811
  12050,   2367.63037,   1748.18811
  12051,   2370.63037,   1746.18811
  12052,   2371.63037,   1745.18811
  12053,   2372.63037,   1746.18811
  12054,   2370.63037,   1744.18811
  12055,   2372.63037,   1744.18811
  12056,   2373.63037,   1745.18811
  12057,   2368.63037,   1747.68811
  12058,   2369.63037,   1747.18811
  12059,   2367.63037,   1747.18811
  12060,   2368.63037,   1746.18811
  12061,   2369.63037,   1745.18811
  12062,   2367.63037,   1745.18811
  12063,   2368.63037,   1744.18811
  12064,   2369.63037,   1743.18811
  12065,   2367.63037,   1743.18811
  12066,   2368.63037,   1742.20984
  12067,   2369.63037,   1741.23157
  12068,   2367.63037,   1741.23157
  12069,   2368.63037,    1740.2533
  12070,   2369.63037,   1739.27502
  12071,   2367.63037,   1739.27502
  12072,   2368.63037,   1738.29675
  12073,   2369.63037,   1737.31848
  12074,   2367.63037,   1737.31848
  12075,   2368.63037,   1736.34033
  12076,   2369.63037,   1735.36206
  12077,   2367.63037,   1735.36206
  12078,   2368.63037,   1734.38379
  12079,   2369.63037,   1733.40552
  12080,   2367.63037,   1733.40552
  12081,   2368.63037,   1732.42725
  12082,   2369.63037,   1731.44897
  12083,   2367.63037,   1731.44897
  12084,   2368.63037,    1730.4707
  12085,   2369.63037,   1729.49243
  12086,   2367.63037,   1729.49243
  12087,   2368.63037,   1728.51416
  12088,   2369.63037,   1727.53589
  12089,   2367.63037,   1727.53589
  12090,   2368.63037,   1726.55762
  12091,   2369.63037,   1725.57947
  12092,   2367.63037,   1725.57947
  12093,   2368.63037,    1724.6012
  12094,   2369.63037,   1723.62292
  12095,   2367.63037,   1723.62292
  12096,   2368.63037,   1722.64465
  12097,   2369.63037,   1721.66638
  12098,   2367.63037,   1721.66638
  12099,   2368.63037,   1720.68811
  12100,   2369.63037,   1719.70984
  12101,   2367.63037,   1719.70984
  12102,   2368.63037,   1718.73157
  12103,   2369.63037,    1717.7533
  12104,   2367.63037,    1717.7533
  12105,   2368.63037,   1716.77502
  12106,   2369.63037,   1715.79675
  12107,   2367.63037,   1715.79675
  12108,   2368.63037,    1714.8186
  12109,   2369.63037,   1713.84033
  12110,   2367.63037,   1713.84033
  12111,   2368.63037,   1712.86206
  12112,   2369.63037,   1711.88379
  12113,   2367.63037,   1711.88379
  12114,   2368.63037,   1710.90552
  12115,   2369.63037,   1709.92725
  12116,   2367.63037,   1709.92725
  12117,   2368.63037,   1708.94897
  12118,   2369.63037,    1707.9707
  12119,   2367.63037,    1707.9707
  12120,   2368.63037,   1706.99243
  12121,   2369.63037,   1706.01416
  12122,   2367.63037,   1706.01416
  12123,   2368.63037,   1705.03589
  12124,   2369.63037,   1704.05762
  12125,   2367.63037,   1704.05762
  12126,   2368.63037,   1703.07935
  12127,   2369.63037,    1702.1012
  12128,   2367.63037,    1702.1012
  12129,   2368.63037,   1701.12292
  12130,   2369.63037,   1700.14465
  12131,   2367.63037,   1700.14465
  12132,   2368.63037,   1699.16638
  12133,   2369.63037,   1698.18811
  12134,   2367.63037,   1698.18811
  12135,   2368.63037,   1697.68811
  12136,   2369.63037,   1697.18811
  12137,   2367.63037,   1697.18811
  12138,   2367.63037,   1694.18811
  12139,   2368.63037,   1694.93811
  12140,   2367.63037,   1695.68811
  12141,   2369.63037,   1694.18811
  12142,   2369.63037,   1695.68811
  12143,   2368.63037,   1696.43811
  12144,   2374.63037,   1691.18811
  12145,   2376.46362,   1691.18811
  12146,   2375.54712,   1692.18811
  12147,   2378.29712,   1691.18811
  12148,   2377.38037,   1692.18811
  12149,   2380.13037,   1691.18811
  12150,   2379.21387,   1692.18811
  12151,   2381.96362,   1691.18811
  12152,   2381.04688,   1692.18811
  12153,   2383.79712,   1691.18811
  12154,   2382.88037,   1692.18811
  12155,   2385.63037,   1691.18811
  12156,   2384.71387,   1692.18811
  12157,   2370.63037,   1691.18811
  12158,   2369.63037,   1692.18811
  12159,   2368.63037,   1691.18811
  12160,   2367.63037,   1692.18811
  12161,   2374.63037,   1693.68811
  12162,   2375.54712,   1693.18811
  12163,   2376.46362,   1693.68811
  12164,   2377.38037,   1693.18811
  12165,   2378.29712,   1693.68811
  12166,   2379.21387,   1693.18811
  12167,   2380.13037,   1693.68811
  12168,   2381.04688,   1693.18811
  12169,   2381.96362,   1693.68811
  12170,   2382.88037,   1693.18811
  12171,   2383.79712,   1693.68811
  12172,   2384.71387,   1693.18811
  12173,   2368.63037,   1693.68811
  12174,   2369.63037,   1693.18811
  12175,   2370.63037,   1693.68811
  12176,   2367.63037,   1693.18811
  12177,   2376.46362,   1692.68811
  12178,   2374.63037,   1692.68811
  12179,   2378.29712,   1692.68811
  12180,   2380.13037,   1692.68811
  12181,   2381.96362,   1692.68811
  12182,   2383.79712,   1692.68811
  12183,   2372.63037,   1691.18811
  12184,   2371.63037,   1692.18811
  12185,   2373.63037,   1692.18811
  12186,   2368.63037,   1692.68811
  12187,   2370.63037,   1692.68811
  12188,   2371.63037,   1693.18811
  12189,   2372.63037,   1693.68811
  12190,   2373.63037,   1693.18811
  12191,   2372.63037,   1692.68811
  12192,   2425.13037,   1687.18811
  12193,   2425.13037,   1684.18811
  12194,   2417.63037,   1696.43811
  12195,   2418.63037,   1695.68811
  12196,   2416.63037,   1695.68811
  12197,   2417.63037,   1694.93811
  12198,   2405.13037,   1745.18811
  12199,   2400.13037,   1745.18811
  12200,   2415.13037,   1745.18811
  12201,   2425.13037,   1745.18811
  12202,   2420.13037,   1745.18811
  12203,   2387.63037,   1691.18811
  12204,   2461.13037,   1748.18811
  12205,   2387.63037,   1685.68811
  12206,   2502.13037,   1732.18811
  12207,   2501.63037,   1731.18811
  12208,   2502.13037,   1734.18811
  12209,   2501.63037,   1733.18811
  12210,   2502.13037,   1736.18811
  12211,   2501.63037,   1735.18811
  12212,   2502.13037,   1738.18811
  12213,   2501.63037,   1737.18811
  12214,   2501.63037,   1739.18811
  12215,   2501.13037,   1740.18811
  12216,   2501.13037,   1742.18811
  12217,   2501.13037,   1744.18811
  12218,   2501.13037,   1746.18811
  12219,   2501.13037,   1748.18811
  12220,   2501.13037,   1750.18811
  12221,   2501.13037,   1752.18811
  12222,   2501.13037,   1754.18811
  12223,   2501.13037,   1756.18811
  12224,   2501.13037,   1758.18811
  12225,   2501.13037,   1760.18811
  12226,   2501.13037,   1762.18811
  12227,   2501.13037,   1764.18811
  12228,   2501.13037,   1766.18811
  12229,   2501.13037,   1768.18811
  12230,   2501.13037,   1770.18811
  12231,   2501.13037,   1772.18811
  12232,   2501.13037,   1774.18811
  12233,   2501.13037,   1776.18811
  12234,   2501.13037,   1778.18811
  12235,   2501.13037,   1780.18811
  12236,   2501.13037,   1782.18811
  12237,   2501.13037,   1784.18811
  12238,   2501.13037,   1786.18811
  12239,   2501.13037,   1732.18811
  12240,   2500.63037,   1731.18811
  12241,   2501.13037,   1734.18811
  12242,   2500.63037,   1733.18811
  12243,   2501.13037,   1736.18811
  12244,   2500.63037,   1735.18811
  12245,   2501.13037,   1738.18811
  12246,   2500.63037,   1737.18811
  12247,   2500.63037,   1739.18811
  12248,   2499.13037,   1732.18811
  12249,   2499.13037,   1734.18811
  12250,   2499.13037,   1736.18811
  12251,   2499.13037,   1738.18811
*Element, type=CPS8R
1,    1, 1113, 1114,    4, 4159, 4160, 4161, 4162
2, 1113,    2,    3, 1114, 4163, 4164, 4165, 4160
3,    5, 1115, 1116,    8, 4166, 4167, 4168, 4169
4, 1115,    6,    7, 1116, 4170, 4171, 4172, 4167
5,    9, 1117, 1115,    5, 4173, 4174, 4166, 4175
6, 1117,   10,    6, 1115, 4176, 4177, 4170, 4174
7,   11,   12, 1118, 1119, 4178, 4179, 4180, 4181
8, 1119, 1118,   13,   14, 4180, 4182, 4183, 4184
 9,   12,   11, 1120, 1129, 4178, 4185, 4186, 4187
10, 1129, 1120, 1121, 1128, 4186, 4188, 4189, 4190
11, 1128, 1121, 1122, 1127, 4189, 4191, 4192, 4193
12, 1127, 1122, 1123, 1126, 4192, 4194, 4195, 4196
13, 1126, 1123, 1124, 1125, 4195, 4197, 4198, 4199
14, 1125, 1124,   15,   16, 4198, 4200, 4201, 4202
15,   16,   15, 1130, 1131, 4201, 4203, 4204, 4205
16, 1131, 1130,   17,   18, 4204, 4206, 4207, 4208
17,   18,   17,   19,   20, 4207, 4209, 4210, 4211
18,   20,   19,   21,   22, 4210, 4212, 4213, 4214
19,   23,   24,   25,   26, 4215, 4216, 4217, 4218
20,   22,   21,   27,   28, 4213, 4219, 4220, 4221
21,   24,   23,   29,   30, 4215, 4222, 4223, 4224
22,   31,   32,   28,   27, 4225, 4226, 4220, 4227
23,   33,   34, 1132, 1133, 4228, 4229, 4230, 4231
24, 1133, 1132,   30,   29, 4230, 4232, 4223, 4233
25,   35,   36, 1134, 1135, 4234, 4235, 4236, 4237
26, 1135, 1134,   32,   31, 4236, 4238, 4225, 4239
27,   37,   38,   34,   33, 4240, 4241, 4228, 4242
28,   35,   39,   40,   36, 4243, 4244, 4245, 4234
29,   41,   42, 1136, 1179, 4246, 4247, 4248, 4249
30, 1179, 1136, 1137, 1178, 4248, 4250, 4251, 4252
31, 1178, 1137, 1138, 1177, 4251, 4253, 4254, 4255
32, 1177, 1138, 1139, 1176, 4254, 4256, 4257, 4258
33, 1176, 1139, 1140, 1175, 4257, 4259, 4260, 4261
34, 1175, 1140, 1141, 1174, 4260, 4262, 4263, 4264
35, 1174, 1141, 1142, 1173, 4263, 4265, 4266, 4267
36, 1173, 1142, 1143, 1172, 4266, 4268, 4269, 4270
37, 1172, 1143, 1144, 1171, 4269, 4271, 4272, 4273
38, 1171, 1144, 1145, 1170, 4272, 4274, 4275, 4276
39, 1170, 1145, 1146, 1169, 4275, 4277, 4278, 4279
40, 1169, 1146, 1147, 1168, 4278, 4280, 4281, 4282
41, 1168, 1147, 1148, 1167, 4281, 4283, 4284, 4285
42, 1167, 1148, 1149, 1166, 4284, 4286, 4287, 4288
43, 1166, 1149, 1150, 1165, 4287, 4289, 4290, 4291
44, 1165, 1150, 1151, 1164, 4290, 4292, 4293, 4294
45, 1164, 1151, 1152, 1163, 4293, 4295, 4296, 4297
46, 1163, 1152, 1153, 1162, 4296, 4298, 4299, 4300
47, 1162, 1153, 1154, 1161, 4299, 4301, 4302, 4303
48, 1161, 1154, 1155, 1160, 4302, 4304, 4305, 4306
49, 1160, 1155, 1156, 1159, 4305, 4307, 4308, 4309
50, 1159, 1156, 1157, 1158, 4308, 4310, 4311, 4312
51, 1158, 1157,   38,   37, 4311, 4313, 4240, 4314
52,   43,   44, 1180, 1181, 4315, 4316, 4317, 4318
53, 1181, 1180,   45,   46, 4317, 4319, 4320, 4321
54,   44,   43, 1182, 1191, 4315, 4322, 4323, 4324
55, 1191, 1182, 1183, 1190, 4323, 4325, 4326, 4327
56, 1190, 1183, 1184, 1189, 4326, 4328, 4329, 4330
57, 1189, 1184, 1185, 1188, 4329, 4331, 4332, 4333
58, 1188, 1185, 1186, 1187, 4332, 4334, 4335, 4336
59, 1187, 1186,   47,   48, 4335, 4337, 4338, 4339
60,   48,   47, 1192, 1193, 4338, 4340, 4341, 4342
61, 1193, 1192,   49,   50, 4341, 4343, 4344, 4345
62,   50,   49,   51,   52, 4344, 4346, 4347, 4348
63,   52,   51,   53,   54, 4347, 4349, 4350, 4351
64,   54,   53,   55,   56, 4350, 4352, 4353, 4354
65,   57,   58,   56,   55, 4355, 4356, 4353, 4357
66,   59,   60, 1194, 1195, 4358, 4359, 4360, 4361
67, 1195, 1194,   58,   57, 4360, 4362, 4355, 4363
68,   61,   62,   60,   59, 4364, 4365, 4358, 4366
69,   63,   64,   65,   66, 4367, 4368, 4369, 4370
70,   67,   68, 1196, 1197, 4371, 4372, 4373, 4374
71, 1197, 1196,   62,   61, 4373, 4375, 4364, 4376
72,   64,   63,   69,   70, 4367, 4377, 4378, 4379
73,   67,   71,   72,   68, 4380, 4381, 4382, 4371
74,   73,   74, 1198, 1199, 4383, 4384, 4385, 4386
75, 1199, 1198,   70,   69, 4385, 4387, 4378, 4388
76,   75,   76, 1200, 1201, 4389, 4390, 4391, 4392
77, 1201, 1200,   71,   67, 4391, 4393, 4380, 4394
78,   77,   78,   74,   73, 4395, 4396, 4383, 4397
79,   79,   80,   76,   75, 4398, 4399, 4389, 4400
 80,   81,   82, 1202, 1245, 4401, 4402, 4403, 4404
 81, 1245, 1202, 1203, 1244, 4403, 4405, 4406, 4407
 82, 1244, 1203, 1204, 1243, 4406, 4408, 4409, 4410
 83, 1243, 1204, 1205, 1242, 4409, 4411, 4412, 4413
 84, 1242, 1205, 1206, 1241, 4412, 4414, 4415, 4416
 85, 1241, 1206, 1207, 1240, 4415, 4417, 4418, 4419
 86, 1240, 1207, 1208, 1239, 4418, 4420, 4421, 4422
 87, 1239, 1208, 1209, 1238, 4421, 4423, 4424, 4425
 88, 1238, 1209, 1210, 1237, 4424, 4426, 4427, 4428
 89, 1237, 1210, 1211, 1236, 4427, 4429, 4430, 4431
 90, 1236, 1211, 1212, 1235, 4430, 4432, 4433, 4434
 91, 1235, 1212, 1213, 1234, 4433, 4435, 4436, 4437
 92, 1234, 1213, 1214, 1233, 4436, 4438, 4439, 4440
 93, 1233, 1214, 1215, 1232, 4439, 4441, 4442, 4443
 94, 1232, 1215, 1216, 1231, 4442, 4444, 4445, 4446
 95, 1231, 1216, 1217, 1230, 4445, 4447, 4448, 4449
 96, 1230, 1217, 1218, 1229, 4448, 4450, 4451, 4452
 97, 1229, 1218, 1219, 1228, 4451, 4453, 4454, 4455
 98, 1228, 1219, 1220, 1227, 4454, 4456, 4457, 4458
 99, 1227, 1220, 1221, 1226, 4457, 4459, 4460, 4461
100, 1226, 1221, 1222, 1225, 4460, 4462, 4463, 4464
101, 1225, 1222, 1223, 1224, 4463, 4465, 4466, 4467
102, 1224, 1223,   78,   77, 4466, 4468, 4395, 4469
103,   83,   84,   85,   86, 4470, 4471, 4472, 4473
104,   87,   88, 1246, 1247, 4474, 4475, 4476, 4477
105, 1247, 1246,   84,   83, 4476, 4478, 4470, 4479
106,   89,   90,   88,   87, 4480, 4481, 4474, 4482
107,   91,   92, 1248, 1249, 4483, 4484, 4485, 4486
108, 1249, 1248,   90,   89, 4485, 4487, 4480, 4488
109,   93,   94,   92,   91, 4489, 4490, 4483, 4491
110,   95,   96, 1250, 1251, 4492, 4493, 4494, 4495
111, 1251, 1250,   94,   93, 4494, 4496, 4489, 4497
112,   97,   98,   96,   95, 4498, 4499, 4492, 4500
113,   99,  100, 1252, 1253, 4501, 4502, 4503, 4504
114, 1253, 1252,   98,   97, 4503, 4505, 4498, 4506
115,  100,   99,  101,  102, 4501, 4507, 4508, 4509
116,  103,  104, 1254, 1255, 4510, 4511, 4512, 4513
117, 1255, 1254,  102,  101, 4512, 4514, 4508, 4515
118,  104,  103,  105,  106, 4510, 4516, 4517, 4518
119,  105,  107,  108,  106, 4519, 4520, 4521, 4517
120,  107,  105,  109,  110, 4519, 4522, 4523, 4524
121,  110,  109,  111,  112, 4523, 4525, 4526, 4527
122,  112,  111,  113,  114, 4526, 4528, 4529, 4530
123,  115,  116,   10,  117, 4531, 4532, 4533, 4534
124,  118,  119,  120,  121, 4535, 4536, 4537, 4538
125,  122,  123,    7,    6, 4539, 4540, 4171, 4541
126,  114,  113,  120,  119, 4529, 4542, 4536, 4543
127,  116,  115,  112,  114, 4531, 4544, 4530, 4545
128,   10,  116,  122,    6, 4532, 4546, 4541, 4177
129,  123,  122,  119,  118, 4539, 4547, 4535, 4548
130,  124,  125,  126,  127, 4549, 4550, 4551, 4552
131,  128,  129, 1256, 1257, 4553, 4554, 4555, 4556
132, 1257, 1256,  125,  124, 4555, 4557, 4549, 4558
133,  129,  128, 1258, 1259, 4553, 4559, 4560, 4561
134, 1259, 1258,  130,  131, 4560, 4562, 4563, 4564
135,  131,  130, 1260, 1269, 4563, 4565, 4566, 4567
136, 1269, 1260, 1261, 1268, 4566, 4568, 4569, 4570
137, 1268, 1261, 1262, 1267, 4569, 4571, 4572, 4573
138, 1267, 1262, 1263, 1266, 4572, 4574, 4575, 4576
139, 1266, 1263, 1264, 1265, 4575, 4577, 4578, 4579
140, 1265, 1264,  132,  133, 4578, 4580, 4581, 4582
141,  133,  132, 1270, 1271, 4581, 4583, 4584, 4585
142, 1271, 1270,  134,  135, 4584, 4586, 4587, 4588
143,  135,  134,  136,  137, 4587, 4589, 4590, 4591
144,  137,  136,  138,  139, 4590, 4592, 4593, 4594
145,  139,  138,  140,  141, 4593, 4595, 4596, 4597
146,  142,  143,  141,  140, 4598, 4599, 4596, 4600
147,  144,  145, 1272, 1273, 4601, 4602, 4603, 4604
148, 1273, 1272,  143,  142, 4603, 4605, 4598, 4606
149,  146,  147,  145,  144, 4607, 4608, 4601, 4609
150,  148,  149, 1274, 1275, 4610, 4611, 4612, 4613
151, 1275, 1274,  147,  146, 4612, 4614, 4607, 4615
152,  150,  151,  149,  148, 4616, 4617, 4610, 4618
153,  152,  153, 1276, 1277, 4619, 4620, 4621, 4622
154, 1277, 1276,  151,  150, 4621, 4623, 4616, 4624
155,  154,  155,  153,  152, 4625, 4626, 4619, 4627
156,  156,  157, 1278, 1279, 4628, 4629, 4630, 4631
157, 1279, 1278,  155,  154, 4630, 4632, 4625, 4633
158,  156,  158,  159,  157, 4634, 4635, 4636, 4628
159,  160,  161, 1280, 1281, 4637, 4638, 4639, 4640
160, 1281, 1280,  158,  156, 4639, 4641, 4634, 4642
161,  162,  163,  161,  160, 4643, 4644, 4637, 4645
162,  164,  165, 1282, 1283, 4646, 4647, 4648, 4649
163, 1283, 1282,  163,  162, 4648, 4650, 4643, 4651
164,  166,  167,  165,  164, 4652, 4653, 4646, 4654
165,  168,  169, 1284, 1285, 4655, 4656, 4657, 4658
166, 1285, 1284,  167,  166, 4657, 4659, 4652, 4660
167,  170,  171,  172,  173, 4661, 4662, 4663, 4664
168,  174,  175,  169,  168, 4665, 4666, 4655, 4667
169,  176,  177, 1286, 1329, 4668, 4669, 4670, 4671
170, 1329, 1286, 1287, 1328, 4670, 4672, 4673, 4674
171, 1328, 1287, 1288, 1327, 4673, 4675, 4676, 4677
172, 1327, 1288, 1289, 1326, 4676, 4678, 4679, 4680
173, 1326, 1289, 1290, 1325, 4679, 4681, 4682, 4683
174, 1325, 1290, 1291, 1324, 4682, 4684, 4685, 4686
175, 1324, 1291, 1292, 1323, 4685, 4687, 4688, 4689
176, 1323, 1292, 1293, 1322, 4688, 4690, 4691, 4692
177, 1322, 1293, 1294, 1321, 4691, 4693, 4694, 4695
178, 1321, 1294, 1295, 1320, 4694, 4696, 4697, 4698
179, 1320, 1295, 1296, 1319, 4697, 4699, 4700, 4701
180, 1319, 1296, 1297, 1318, 4700, 4702, 4703, 4704
181, 1318, 1297, 1298, 1317, 4703, 4705, 4706, 4707
182, 1317, 1298, 1299, 1316, 4706, 4708, 4709, 4710
183, 1316, 1299, 1300, 1315, 4709, 4711, 4712, 4713
184, 1315, 1300, 1301, 1314, 4712, 4714, 4715, 4716
185, 1314, 1301, 1302, 1313, 4715, 4717, 4718, 4719
186, 1313, 1302, 1303, 1312, 4718, 4720, 4721, 4722
187, 1312, 1303, 1304, 1311, 4721, 4723, 4724, 4725
188, 1311, 1304, 1305, 1310, 4724, 4726, 4727, 4728
189, 1310, 1305, 1306, 1309, 4727, 4729, 4730, 4731
190, 1309, 1306, 1307, 1308, 4730, 4732, 4733, 4734
191, 1308, 1307,  171,  170, 4733, 4735, 4661, 4736
192,  178,   83,   86,  179, 4737, 4473, 4738, 4739
193,  180,   87, 1247, 1330, 4740, 4477, 4741, 4742
194, 1330, 1247,   83,  178, 4741, 4479, 4737, 4743
195,  181,   89,   87,  180, 4744, 4482, 4740, 4745
196,  182,   91, 1249, 1331, 4746, 4486, 4747, 4748
197, 1331, 1249,   89,  181, 4747, 4488, 4744, 4749
198,  183,   93,   91,  182, 4750, 4491, 4746, 4751
199,  184,   95, 1251, 1332, 4752, 4495, 4753, 4754
200, 1332, 1251,   93,  183, 4753, 4497, 4750, 4755
201,  185,   97,   95,  184, 4756, 4500, 4752, 4757
202,  186,   99, 1253, 1333, 4758, 4504, 4759, 4760
203, 1333, 1253,   97,  185, 4759, 4506, 4756, 4761
204,   99,  186,  187,  101, 4758, 4762, 4763, 4507
205,  188,  103, 1255, 1334, 4764, 4513, 4765, 4766
206, 1334, 1255,  101,  187, 4765, 4515, 4763, 4767
207,  103,  188,  109,  105, 4764, 4768, 4522, 4516
208,  189, 1335, 3445, 1338, 4769, 4770, 4771, 4772
209, 1335,  190, 1336, 3445, 4773, 4774, 4775, 4770
210, 1338, 3445, 1337,  192, 4771, 4776, 4777, 4778
211, 3445, 1336,  191, 1337, 4775, 4779, 4780, 4776
212,  193, 1339, 3446, 1384, 4781, 4782, 4783, 4784
213, 1339,  194, 1340, 3446, 4785, 4786, 4787, 4782
214, 1384, 3446, 3447, 1383, 4783, 4788, 4789, 4790
215, 3446, 1340, 1341, 3447, 4787, 4791, 4792, 4788
216, 1383, 3447, 3448, 1382, 4789, 4793, 4794, 4795
217, 3447, 1341, 1342, 3448, 4792, 4796, 4797, 4793
218, 1382, 3448, 3449, 1381, 4794, 4798, 4799, 4800
219, 3448, 1342, 1343, 3449, 4797, 4801, 4802, 4798
220, 1381, 3449, 3450, 1380, 4799, 4803, 4804, 4805
221, 3449, 1343, 1344, 3450, 4802, 4806, 4807, 4803
222, 1380, 3450, 3451, 1379, 4804, 4808, 4809, 4810
223, 3450, 1344, 1345, 3451, 4807, 4811, 4812, 4808
224, 1379, 3451, 3452, 1378, 4809, 4813, 4814, 4815
225, 3451, 1345, 1346, 3452, 4812, 4816, 4817, 4813
226, 1378, 3452, 3453, 1377, 4814, 4818, 4819, 4820
227, 3452, 1346, 1347, 3453, 4817, 4821, 4822, 4818
228, 1377, 3453, 3454, 1376, 4819, 4823, 4824, 4825
229, 3453, 1347, 1348, 3454, 4822, 4826, 4827, 4823
230, 1376, 3454, 3455, 1375, 4824, 4828, 4829, 4830
231, 3454, 1348, 1349, 3455, 4827, 4831, 4832, 4828
232, 1375, 3455, 3456, 1374, 4829, 4833, 4834, 4835
233, 3455, 1349, 1350, 3456, 4832, 4836, 4837, 4833
234, 1374, 3456, 3457, 1373, 4834, 4838, 4839, 4840
235, 3456, 1350, 1351, 3457, 4837, 4841, 4842, 4838
236, 1373, 3457, 3458, 1372, 4839, 4843, 4844, 4845
237, 3457, 1351, 1352, 3458, 4842, 4846, 4847, 4843
238, 1372, 3458, 3459, 1371, 4844, 4848, 4849, 4850
239, 3458, 1352, 1353, 3459, 4847, 4851, 4852, 4848
240, 1371, 3459, 3460, 1370, 4849, 4853, 4854, 4855
241, 3459, 1353, 1354, 3460, 4852, 4856, 4857, 4853
242, 1370, 3460, 3461, 1369, 4854, 4858, 4859, 4860
243, 3460, 1354, 1355, 3461, 4857, 4861, 4862, 4858
244, 1369, 3461, 3462, 1368, 4859, 4863, 4864, 4865
245, 3461, 1355, 1356, 3462, 4862, 4866, 4867, 4863
246, 1368, 3462, 3463, 1367, 4864, 4868, 4869, 4870
247, 3462, 1356, 1357, 3463, 4867, 4871, 4872, 4868
248, 1367, 3463, 3464, 1366, 4869, 4873, 4874, 4875
249, 3463, 1357, 1358, 3464, 4872, 4876, 4877, 4873
250, 1366, 3464, 3465, 1365, 4874, 4878, 4879, 4880
251, 3464, 1358, 1359, 3465, 4877, 4881, 4882, 4878
252, 1365, 3465, 3466, 1364, 4879, 4883, 4884, 4885
253, 3465, 1359, 1360, 3466, 4882, 4886, 4887, 4883
254, 1364, 3466, 3467, 1363, 4884, 4888, 4889, 4890
255, 3466, 1360, 1361, 3467, 4887, 4891, 4892, 4888
256, 1363, 3467, 1362,  196, 4889, 4893, 4894, 4895
257, 3467, 1361,  195, 1362, 4892, 4896, 4897, 4893
258,  109,  188,  197,  111, 4768, 4898, 4899, 4525
259,  189, 1338, 3468, 1395, 4772, 4900, 4901, 4902
260, 1338,  192, 1385, 3468, 4778, 4903, 4904, 4900
261, 1395, 3468, 3469, 1394, 4901, 4905, 4906, 4907
262, 3468, 1385, 1386, 3469, 4904, 4908, 4909, 4905
263, 1394, 3469, 3470, 1393, 4906, 4910, 4911, 4912
264, 3469, 1386, 1387, 3470, 4909, 4913, 4914, 4910
265, 1393, 3470, 3471, 1392, 4911, 4915, 4916, 4917
266, 3470, 1387, 1388, 3471, 4914, 4918, 4919, 4915
267, 1392, 3471, 3472, 1391, 4916, 4920, 4921, 4922
268, 3471, 1388, 1389, 3472, 4919, 4923, 4924, 4920
269, 1391, 3472, 1390,  198, 4921, 4925, 4926, 4927
270, 3472, 1389,    8, 1390, 4924, 4928, 4929, 4925
271,  194, 1339, 1335,  189, 4785, 4930, 4769, 4931
272, 1339,  193,  190, 1335, 4781, 4932, 4773, 4930
273,  195, 1361, 3473, 1427, 4896, 4933, 4934, 4935
274, 1361, 1360, 3474, 3473, 4891, 4936, 4937, 4933
275, 1360, 1359, 3475, 3474, 4886, 4938, 4939, 4936
276, 1359, 1358, 3476, 3475, 4881, 4940, 4941, 4938
277, 1358, 1357, 3477, 3476, 4876, 4942, 4943, 4940
278, 1357, 1356, 3478, 3477, 4871, 4944, 4945, 4942
279, 1356, 1355, 3479, 3478, 4866, 4946, 4947, 4944
280, 1355, 1354, 3480, 3479, 4861, 4948, 4949, 4946
281, 1354, 1353, 3481, 3480, 4856, 4950, 4951, 4948
282, 1353, 1352, 3482, 3481, 4851, 4952, 4953, 4950
283, 1352, 1351, 3483, 3482, 4846, 4954, 4955, 4952
284, 1351, 1350, 3484, 3483, 4841, 4956, 4957, 4954
285, 1350, 1349, 3485, 3484, 4836, 4958, 4959, 4956
286, 1349, 1348, 3486, 3485, 4831, 4960, 4961, 4958
287, 1348, 1347, 3487, 3486, 4826, 4962, 4963, 4960
288, 1347, 1346, 3488, 3487, 4821, 4964, 4965, 4962
289, 1346, 1345, 3489, 3488, 4816, 4966, 4967, 4964
290, 1345, 1344, 3490, 3489, 4811, 4968, 4969, 4966
291, 1344, 1343, 3491, 3490, 4806, 4970, 4971, 4968
292, 1343, 1342, 3492, 3491, 4801, 4972, 4973, 4970
293, 1342, 1341, 3493, 3492, 4796, 4974, 4975, 4972
294, 1341, 1340, 3494, 3493, 4791, 4976, 4977, 4974
295, 1340,  194, 1396, 3494, 4786, 4978, 4979, 4976
296, 1427, 3473, 3495, 1426, 4934, 4980, 4981, 4982
297, 3473, 3474, 3496, 3495, 4937, 4983, 4984, 4980
298, 3474, 3475, 3497, 3496, 4939, 4985, 4986, 4983
299, 3475, 3476, 3498, 3497, 4941, 4987, 4988, 4985
300, 3476, 3477, 3499, 3498, 4943, 4989, 4990, 4987
301, 3477, 3478, 3500, 3499, 4945, 4991, 4992, 4989
302, 3478, 3479, 3501, 3500, 4947, 4993, 4994, 4991
303, 3479, 3480, 3502, 3501, 4949, 4995, 4996, 4993
304, 3480, 3481, 3503, 3502, 4951, 4997, 4998, 4995
305, 3481, 3482, 3504, 3503, 4953, 4999, 5000, 4997
306, 3482, 3483, 3505, 3504, 4955, 5001, 5002, 4999
307, 3483, 3484, 3506, 3505, 4957, 5003, 5004, 5001
308, 3484, 3485, 3507, 3506, 4959, 5005, 5006, 5003
309, 3485, 3486, 3508, 3507, 4961, 5007, 5008, 5005
310, 3486, 3487, 3509, 3508, 4963, 5009, 5010, 5007
311, 3487, 3488, 3510, 3509, 4965, 5011, 5012, 5009
312, 3488, 3489, 3511, 3510, 4967, 5013, 5014, 5011
313, 3489, 3490, 3512, 3511, 4969, 5015, 5016, 5013
314, 3490, 3491, 3513, 3512, 4971, 5017, 5018, 5015
315, 3491, 3492, 3514, 3513, 4973, 5019, 5020, 5017
316, 3492, 3493, 3515, 3514, 4975, 5021, 5022, 5019
317, 3493, 3494, 3516, 3515, 4977, 5023, 5024, 5021
318, 3494, 1396, 1397, 3516, 4979, 5025, 5026, 5023
319, 1426, 3495, 3517, 1425, 4981, 5027, 5028, 5029
320, 3495, 3496, 3518, 3517, 4984, 5030, 5031, 5027
321, 3496, 3497, 3519, 3518, 4986, 5032, 5033, 5030
322, 3497, 3498, 3520, 3519, 4988, 5034, 5035, 5032
323, 3498, 3499, 3521, 3520, 4990, 5036, 5037, 5034
324, 3499, 3500, 3522, 3521, 4992, 5038, 5039, 5036
325, 3500, 3501, 3523, 3522, 4994, 5040, 5041, 5038
326, 3501, 3502, 3524, 3523, 4996, 5042, 5043, 5040
327, 3502, 3503, 3525, 3524, 4998, 5044, 5045, 5042
328, 3503, 3504, 3526, 3525, 5000, 5046, 5047, 5044
329, 3504, 3505, 3527, 3526, 5002, 5048, 5049, 5046
330, 3505, 3506, 3528, 3527, 5004, 5050, 5051, 5048
331, 3506, 3507, 3529, 3528, 5006, 5052, 5053, 5050
332, 3507, 3508, 3530, 3529, 5008, 5054, 5055, 5052
333, 3508, 3509, 3531, 3530, 5010, 5056, 5057, 5054
334, 3509, 3510, 3532, 3531, 5012, 5058, 5059, 5056
335, 3510, 3511, 3533, 3532, 5014, 5060, 5061, 5058
336, 3511, 3512, 3534, 3533, 5016, 5062, 5063, 5060
337, 3512, 3513, 3535, 3534, 5018, 5064, 5065, 5062
338, 3513, 3514, 3536, 3535, 5020, 5066, 5067, 5064
339, 3514, 3515, 3537, 3536, 5022, 5068, 5069, 5066
340, 3515, 3516, 3538, 3537, 5024, 5070, 5071, 5068
341, 3516, 1397, 1398, 3538, 5026, 5072, 5073, 5070
342, 1425, 3517, 3539, 1424, 5028, 5074, 5075, 5076
343, 3517, 3518, 3540, 3539, 5031, 5077, 5078, 5074
344, 3518, 3519, 3541, 3540, 5033, 5079, 5080, 5077
345, 3519, 3520, 3542, 3541, 5035, 5081, 5082, 5079
346, 3520, 3521, 3543, 3542, 5037, 5083, 5084, 5081
347, 3521, 3522, 3544, 3543, 5039, 5085, 5086, 5083
348, 3522, 3523, 3545, 3544, 5041, 5087, 5088, 5085
349, 3523, 3524, 3546, 3545, 5043, 5089, 5090, 5087
350, 3524, 3525, 3547, 3546, 5045, 5091, 5092, 5089
351, 3525, 3526, 3548, 3547, 5047, 5093, 5094, 5091
352, 3526, 3527, 3549, 3548, 5049, 5095, 5096, 5093
353, 3527, 3528, 3550, 3549, 5051, 5097, 5098, 5095
354, 3528, 3529, 3551, 3550, 5053, 5099, 5100, 5097
355, 3529, 3530, 3552, 3551, 5055, 5101, 5102, 5099
356, 3530, 3531, 3553, 3552, 5057, 5103, 5104, 5101
357, 3531, 3532, 3554, 3553, 5059, 5105, 5106, 5103
358, 3532, 3533, 3555, 3554, 5061, 5107, 5108, 5105
359, 3533, 3534, 3556, 3555, 5063, 5109, 5110, 5107
360, 3534, 3535, 3557, 3556, 5065, 5111, 5112, 5109
361, 3535, 3536, 3558, 3557, 5067, 5113, 5114, 5111
362, 3536, 3537, 3559, 3558, 5069, 5115, 5116, 5113
363, 3537, 3538, 3560, 3559, 5071, 5117, 5118, 5115
364, 3538, 1398, 1399, 3560, 5073, 5119, 5120, 5117
365, 1424, 3539, 3561, 1423, 5075, 5121, 5122, 5123
366, 3539, 3540, 3562, 3561, 5078, 5124, 5125, 5121
367, 3540, 3541, 3563, 3562, 5080, 5126, 5127, 5124
368, 3541, 3542, 3564, 3563, 5082, 5128, 5129, 5126
369, 3542, 3543, 3565, 3564, 5084, 5130, 5131, 5128
370, 3543, 3544, 3566, 3565, 5086, 5132, 5133, 5130
371, 3544, 3545, 3567, 3566, 5088, 5134, 5135, 5132
372, 3545, 3546, 3568, 3567, 5090, 5136, 5137, 5134
373, 3546, 3547, 3569, 3568, 5092, 5138, 5139, 5136
374, 3547, 3548, 3570, 3569, 5094, 5140, 5141, 5138
375, 3548, 3549, 3571, 3570, 5096, 5142, 5143, 5140
376, 3549, 3550, 3572, 3571, 5098, 5144, 5145, 5142
377, 3550, 3551, 3573, 3572, 5100, 5146, 5147, 5144
378, 3551, 3552, 3574, 3573, 5102, 5148, 5149, 5146
379, 3552, 3553, 3575, 3574, 5104, 5150, 5151, 5148
380, 3553, 3554, 3576, 3575, 5106, 5152, 5153, 5150
381, 3554, 3555, 3577, 3576, 5108, 5154, 5155, 5152
382, 3555, 3556, 3578, 3577, 5110, 5156, 5157, 5154
383, 3556, 3557, 3579, 3578, 5112, 5158, 5159, 5156
384, 3557, 3558, 3580, 3579, 5114, 5160, 5161, 5158
385, 3558, 3559, 3581, 3580, 5116, 5162, 5163, 5160
386, 3559, 3560, 3582, 3581, 5118, 5164, 5165, 5162
387, 3560, 1399, 1400, 3582, 5120, 5166, 5167, 5164
388, 1423, 3561, 1422,  200, 5122, 5168, 5169, 5170
389, 3561, 3562, 1421, 1422, 5125, 5171, 5172, 5168
390, 3562, 3563, 1420, 1421, 5127, 5173, 5174, 5171
391, 3563, 3564, 1419, 1420, 5129, 5175, 5176, 5173
392, 3564, 3565, 1418, 1419, 5131, 5177, 5178, 5175
393, 3565, 3566, 1417, 1418, 5133, 5179, 5180, 5177
394, 3566, 3567, 1416, 1417, 5135, 5181, 5182, 5179
395, 3567, 3568, 1415, 1416, 5137, 5183, 5184, 5181
396, 3568, 3569, 1414, 1415, 5139, 5185, 5186, 5183
397, 3569, 3570, 1413, 1414, 5141, 5187, 5188, 5185
398, 3570, 3571, 1412, 1413, 5143, 5189, 5190, 5187
399, 3571, 3572, 1411, 1412, 5145, 5191, 5192, 5189
400, 3572, 3573, 1410, 1411, 5147, 5193, 5194, 5191
401, 3573, 3574, 1409, 1410, 5149, 5195, 5196, 5193
402, 3574, 3575, 1408, 1409, 5151, 5197, 5198, 5195
403, 3575, 3576, 1407, 1408, 5153, 5199, 5200, 5197
404, 3576, 3577, 1406, 1407, 5155, 5201, 5202, 5199
405, 3577, 3578, 1405, 1406, 5157, 5203, 5204, 5201
406, 3578, 3579, 1404, 1405, 5159, 5205, 5206, 5203
407, 3579, 3580, 1403, 1404, 5161, 5207, 5208, 5205
408, 3580, 3581, 1402, 1403, 5163, 5209, 5210, 5207
409, 3581, 3582, 1401, 1402, 5165, 5211, 5212, 5209
410, 3582, 1400,  199, 1401, 5167, 5213, 5214, 5211
411,  111,  197,  201,  113, 4899, 5215, 5216, 4528
412,  198, 1390, 3583, 1429, 4926, 5217, 5218, 5219
413, 1390,    8, 1116, 3583, 4929, 4168, 5220, 5217
414, 1429, 3583, 1428,  202, 5218, 5221, 5222, 5223
415, 3583, 1116,    7, 1428, 5220, 4172, 5224, 5221
416,  199, 1400, 1391,  198, 5213, 5225, 4927, 5226
417, 1400, 1399, 1392, 1391, 5166, 5227, 4922, 5225
418, 1399, 1398, 1393, 1392, 5119, 5228, 4917, 5227
419, 1398, 1397, 1394, 1393, 5072, 5229, 4912, 5228
420, 1397, 1396, 1395, 1394, 5025, 5230, 4907, 5229
421, 1396,  194,  189, 1395, 4978, 4931, 4902, 5230
422,  200, 1422, 3584, 1453, 5169, 5231, 5232, 5233
423, 1422, 1421, 3585, 3584, 5172, 5234, 5235, 5231
424, 1421, 1420, 3586, 3585, 5174, 5236, 5237, 5234
425, 1420, 1419, 3587, 3586, 5176, 5238, 5239, 5236
426, 1419, 1418, 3588, 3587, 5178, 5240, 5241, 5238
427, 1418, 1417, 3589, 3588, 5180, 5242, 5243, 5240
428, 1417, 1416, 3590, 3589, 5182, 5244, 5245, 5242
429, 1416, 1415, 3591, 3590, 5184, 5246, 5247, 5244
430, 1415, 1414, 3592, 3591, 5186, 5248, 5249, 5246
431, 1414, 1413, 3593, 3592, 5188, 5250, 5251, 5248
432, 1413, 1412, 3594, 3593, 5190, 5252, 5253, 5250
433, 1412, 1411, 3595, 3594, 5192, 5254, 5255, 5252
434, 1411, 1410, 3596, 3595, 5194, 5256, 5257, 5254
435, 1410, 1409, 3597, 3596, 5196, 5258, 5259, 5256
436, 1409, 1408, 3598, 3597, 5198, 5260, 5261, 5258
437, 1408, 1407, 3599, 3598, 5200, 5262, 5263, 5260
438, 1407, 1406, 3600, 3599, 5202, 5264, 5265, 5262
439, 1406, 1405, 3601, 3600, 5204, 5266, 5267, 5264
440, 1405, 1404, 3602, 3601, 5206, 5268, 5269, 5266
441, 1404, 1403, 3603, 3602, 5208, 5270, 5271, 5268
442, 1403, 1402, 3604, 3603, 5210, 5272, 5273, 5270
443, 1402, 1401, 3605, 3604, 5212, 5274, 5275, 5272
444, 1401,  199, 1430, 3605, 5214, 5276, 5277, 5274
445, 1453, 3584, 1452,  204, 5232, 5278, 5279, 5280
446, 3584, 3585, 1451, 1452, 5235, 5281, 5282, 5278
447, 3585, 3586, 1450, 1451, 5237, 5283, 5284, 5281
448, 3586, 3587, 1449, 1450, 5239, 5285, 5286, 5283
449, 3587, 3588, 1448, 1449, 5241, 5287, 5288, 5285
450, 3588, 3589, 1447, 1448, 5243, 5289, 5290, 5287
451, 3589, 3590, 1446, 1447, 5245, 5291, 5292, 5289
452, 3590, 3591, 1445, 1446, 5247, 5293, 5294, 5291
453, 3591, 3592, 1444, 1445, 5249, 5295, 5296, 5293
454, 3592, 3593, 1443, 1444, 5251, 5297, 5298, 5295
455, 3593, 3594, 1442, 1443, 5253, 5299, 5300, 5297
456, 3594, 3595, 1441, 1442, 5255, 5301, 5302, 5299
457, 3595, 3596, 1440, 1441, 5257, 5303, 5304, 5301
458, 3596, 3597, 1439, 1440, 5259, 5305, 5306, 5303
459, 3597, 3598, 1438, 1439, 5261, 5307, 5308, 5305
460, 3598, 3599, 1437, 1438, 5263, 5309, 5310, 5307
461, 3599, 3600, 1436, 1437, 5265, 5311, 5312, 5309
462, 3600, 3601, 1435, 1436, 5267, 5313, 5314, 5311
463, 3601, 3602, 1434, 1435, 5269, 5315, 5316, 5313
464, 3602, 3603, 1433, 1434, 5271, 5317, 5318, 5315
465, 3603, 3604, 1432, 1433, 5273, 5319, 5320, 5317
466, 3604, 3605, 1431, 1432, 5275, 5321, 5322, 5319
467, 3605, 1430,  203, 1431, 5277, 5323, 5324, 5321
468,  205,  120,  113,  201, 5325, 4542, 5216, 5326
469,  202, 1428, 1454,  206, 5222, 5327, 5328, 5329
470, 1428,    7,  123, 1454, 5224, 4540, 5330, 5327
471,  203, 1430, 1429,  202, 5323, 5331, 5223, 5332
472, 1430,  199,  198, 1429, 5276, 5226, 5219, 5331
473,  204, 1452, 1476,  208, 5279, 5333, 5334, 5335
474, 1452, 1451, 1475, 1476, 5282, 5336, 5337, 5333
475, 1451, 1450, 1474, 1475, 5284, 5338, 5339, 5336
476, 1450, 1449, 1473, 1474, 5286, 5340, 5341, 5338
477, 1449, 1448, 1472, 1473, 5288, 5342, 5343, 5340
478, 1448, 1447, 1471, 1472, 5290, 5344, 5345, 5342
479, 1447, 1446, 1470, 1471, 5292, 5346, 5347, 5344
480, 1446, 1445, 1469, 1470, 5294, 5348, 5349, 5346
481, 1445, 1444, 1468, 1469, 5296, 5350, 5351, 5348
482, 1444, 1443, 1467, 1468, 5298, 5352, 5353, 5350
483, 1443, 1442, 1466, 1467, 5300, 5354, 5355, 5352
484, 1442, 1441, 1465, 1466, 5302, 5356, 5357, 5354
485, 1441, 1440, 1464, 1465, 5304, 5358, 5359, 5356
486, 1440, 1439, 1463, 1464, 5306, 5360, 5361, 5358
487, 1439, 1438, 1462, 1463, 5308, 5362, 5363, 5360
488, 1438, 1437, 1461, 1462, 5310, 5364, 5365, 5362
489, 1437, 1436, 1460, 1461, 5312, 5366, 5367, 5364
490, 1436, 1435, 1459, 1460, 5314, 5368, 5369, 5366
491, 1435, 1434, 1458, 1459, 5316, 5370, 5371, 5368
492, 1434, 1433, 1457, 1458, 5318, 5372, 5373, 5370
493, 1433, 1432, 1456, 1457, 5320, 5374, 5375, 5372
494, 1432, 1431, 1455, 1456, 5322, 5376, 5377, 5374
495, 1431,  203,  207, 1455, 5324, 5378, 5379, 5376
496,  120,  205,  209,  121, 5325, 5380, 5381, 4537
497,  206, 1454, 1477,  210, 5328, 5382, 5383, 5384
498, 1454,  123,  118, 1477, 5330, 4548, 5385, 5382
499,  207,  203,  202,  206, 5378, 5332, 5329, 5386
500,  208, 1476, 1499,  212, 5334, 5387, 5388, 5389
501, 1476, 1475, 1498, 1499, 5337, 5390, 5391, 5387
502, 1475, 1474, 1497, 1498, 5339, 5392, 5393, 5390
503, 1474, 1473, 1496, 1497, 5341, 5394, 5395, 5392
504, 1473, 1472, 1495, 1496, 5343, 5396, 5397, 5394
505, 1472, 1471, 1494, 1495, 5345, 5398, 5399, 5396
506, 1471, 1470, 1493, 1494, 5347, 5400, 5401, 5398
507, 1470, 1469, 1492, 1493, 5349, 5402, 5403, 5400
508, 1469, 1468, 1491, 1492, 5351, 5404, 5405, 5402
509, 1468, 1467, 1490, 1491, 5353, 5406, 5407, 5404
510, 1467, 1466, 1489, 1490, 5355, 5408, 5409, 5406
511, 1466, 1465, 1488, 1489, 5357, 5410, 5411, 5408
512, 1465, 1464, 1487, 1488, 5359, 5412, 5413, 5410
513, 1464, 1463, 1486, 1487, 5361, 5414, 5415, 5412
514, 1463, 1462, 1485, 1486, 5363, 5416, 5417, 5414
515, 1462, 1461, 1484, 1485, 5365, 5418, 5419, 5416
516, 1461, 1460, 1483, 1484, 5367, 5420, 5421, 5418
517, 1460, 1459, 1482, 1483, 5369, 5422, 5423, 5420
518, 1459, 1458, 1481, 1482, 5371, 5424, 5425, 5422
519, 1458, 1457, 1480, 1481, 5373, 5426, 5427, 5424
520, 1457, 1456, 1479, 1480, 5375, 5428, 5429, 5426
521, 1456, 1455, 1478, 1479, 5377, 5430, 5431, 5428
522, 1455,  207,  211, 1478, 5379, 5432, 5433, 5430
523,  213,  214, 1500, 1501, 5434, 5435, 5436, 5437
524, 1501, 1500,  121,  209, 5436, 5438, 5381, 5439
525,  215, 1502, 1545,  218, 5440, 5441, 5442, 5443
526, 1502, 1503, 1544, 1545, 5444, 5445, 5446, 5441
527, 1503, 1504, 1543, 1544, 5447, 5448, 5449, 5445
528, 1504, 1505, 1542, 1543, 5450, 5451, 5452, 5448
529, 1505, 1506, 1541, 1542, 5453, 5454, 5455, 5451
530, 1506, 1507, 1540, 1541, 5456, 5457, 5458, 5454
531, 1507, 1508, 1539, 1540, 5459, 5460, 5461, 5457
532, 1508, 1509, 1538, 1539, 5462, 5463, 5464, 5460
533, 1509, 1510, 1537, 1538, 5465, 5466, 5467, 5463
534, 1510, 1511, 1536, 1537, 5468, 5469, 5470, 5466
535, 1511, 1512, 1535, 1536, 5471, 5472, 5473, 5469
536, 1512, 1513, 1534, 1535, 5474, 5475, 5476, 5472
537, 1513, 1514, 1533, 1534, 5477, 5478, 5479, 5475
538, 1514, 1515, 1532, 1533, 5480, 5481, 5482, 5478
539, 1515, 1516, 1531, 1532, 5483, 5484, 5485, 5481
540, 1516, 1517, 1530, 1531, 5486, 5487, 5488, 5484
541, 1517, 1518, 1529, 1530, 5489, 5490, 5491, 5487
542, 1518, 1519, 1528, 1529, 5492, 5493, 5494, 5490
543, 1519, 1520, 1527, 1528, 5495, 5496, 5497, 5493
544, 1520, 1521, 1526, 1527, 5498, 5499, 5500, 5496
545, 1521, 1522, 1525, 1526, 5501, 5502, 5503, 5499
546, 1522, 1523, 1524, 1525, 5504, 5505, 5506, 5502
547, 1523,  216,  217, 1524, 5507, 5508, 5509, 5505
548,  210, 1477, 1500,  214, 5383, 5510, 5435, 5511
549, 1477,  118,  121, 1500, 5385, 4538, 5438, 5510
550,  211,  207,  206,  210, 5432, 5386, 5384, 5512
551,  212, 1499, 1502,  215, 5388, 5513, 5440, 5514
552, 1499, 1498, 1503, 1502, 5391, 5515, 5444, 5513
553, 1498, 1497, 1504, 1503, 5393, 5516, 5447, 5515
554, 1497, 1496, 1505, 1504, 5395, 5517, 5450, 5516
555, 1496, 1495, 1506, 1505, 5397, 5518, 5453, 5517
556, 1495, 1494, 1507, 1506, 5399, 5519, 5456, 5518
557, 1494, 1493, 1508, 1507, 5401, 5520, 5459, 5519
558, 1493, 1492, 1509, 1508, 5403, 5521, 5462, 5520
559, 1492, 1491, 1510, 1509, 5405, 5522, 5465, 5521
560, 1491, 1490, 1511, 1510, 5407, 5523, 5468, 5522
561, 1490, 1489, 1512, 1511, 5409, 5524, 5471, 5523
562, 1489, 1488, 1513, 1512, 5411, 5525, 5474, 5524
563, 1488, 1487, 1514, 1513, 5413, 5526, 5477, 5525
564, 1487, 1486, 1515, 1514, 5415, 5527, 5480, 5526
565, 1486, 1485, 1516, 1515, 5417, 5528, 5483, 5527
566, 1485, 1484, 1517, 1516, 5419, 5529, 5486, 5528
567, 1484, 1483, 1518, 1517, 5421, 5530, 5489, 5529
568, 1483, 1482, 1519, 1518, 5423, 5531, 5492, 5530
569, 1482, 1481, 1520, 1519, 5425, 5532, 5495, 5531
570, 1481, 1480, 1521, 1520, 5427, 5533, 5498, 5532
571, 1480, 1479, 1522, 1521, 5429, 5534, 5501, 5533
572, 1479, 1478, 1523, 1522, 5431, 5535, 5504, 5534
573, 1478,  211,  216, 1523, 5433, 5536, 5507, 5535
574,  217,  216,  214,  213, 5508, 5537, 5434, 5538
575,  219,  220,  221,  222, 5539, 5540, 5541, 5542
576,  223,  224, 1546, 1547, 5543, 5544, 5545, 5546
577, 1547, 1546,  220,  219, 5545, 5547, 5539, 5548
578,  224,  223, 1548, 1549, 5543, 5549, 5550, 5551
579, 1549, 1548,  225,  226, 5550, 5552, 5553, 5554
580,  226,  225, 1550, 1559, 5553, 5555, 5556, 5557
581, 1559, 1550, 1551, 1558, 5556, 5558, 5559, 5560
582, 1558, 1551, 1552, 1557, 5559, 5561, 5562, 5563
583, 1557, 1552, 1553, 1556, 5562, 5564, 5565, 5566
584, 1556, 1553, 1554, 1555, 5565, 5567, 5568, 5569
585, 1555, 1554,  227,  228, 5568, 5570, 5571, 5572
586,  228,  227, 1560, 1561, 5571, 5573, 5574, 5575
587, 1561, 1560,  229,  230, 5574, 5576, 5577, 5578
588,  230,  229,  231,  232, 5577, 5579, 5580, 5581
589,  232,  231,  233,  234, 5580, 5582, 5583, 5584
590,  234,  233,  235,  236, 5583, 5585, 5586, 5587
591,  237,  238,  236,  235, 5588, 5589, 5586, 5590
592,  239,  240, 1562, 1563, 5591, 5592, 5593, 5594
593, 1563, 1562,  238,  237, 5593, 5595, 5588, 5596
594,  241,  242,  240,  239, 5597, 5598, 5591, 5599
595,  243,  244, 1564, 1565, 5600, 5601, 5602, 5603
596, 1565, 1564,  242,  241, 5602, 5604, 5597, 5605
597,  245,  246,  244,  243, 5606, 5607, 5600, 5608
598,  247,  248, 1566, 1567, 5609, 5610, 5611, 5612
599, 1567, 1566,  246,  245, 5611, 5613, 5606, 5614
600,  249,  250,  248,  247, 5615, 5616, 5609, 5617
601,  251,  252, 1568, 1569, 5618, 5619, 5620, 5621
602, 1569, 1568,  250,  249, 5620, 5622, 5615, 5623
603,  253,  254,  252,  251, 5624, 5625, 5618, 5626
604,  255,  256, 1570, 1571, 5627, 5628, 5629, 5630
605, 1571, 1570,  254,  253, 5629, 5631, 5624, 5632
606,  255,  257,  258,  256, 5633, 5634, 5635, 5627
607,  259,  260, 1572, 1573, 5636, 5637, 5638, 5639
608, 1573, 1572,  257,  255, 5638, 5640, 5633, 5641
609,  261,  262,  260,  259, 5642, 5643, 5636, 5644
610,  263,  264, 1574, 1575, 5645, 5646, 5647, 5648
611, 1575, 1574,  262,  261, 5647, 5649, 5642, 5650
612,  265,  266,  264,  263, 5651, 5652, 5645, 5653
613,  267,  268, 1576, 1577, 5654, 5655, 5656, 5657
614, 1577, 1576,  266,  265, 5656, 5658, 5651, 5659
615,  269,  270,  268,  267, 5660, 5661, 5654, 5662
616,  271,  272, 1578, 1579, 5663, 5664, 5665, 5666
617, 1579, 1578,  270,  269, 5665, 5667, 5660, 5668
618,  273,  274,  275,  276, 5669, 5670, 5671, 5672
619,  277,  278,  272,  271, 5673, 5674, 5663, 5675
620,  279,  280, 1580, 1623, 5676, 5677, 5678, 5679
621, 1623, 1580, 1581, 1622, 5678, 5680, 5681, 5682
622, 1622, 1581, 1582, 1621, 5681, 5683, 5684, 5685
623, 1621, 1582, 1583, 1620, 5684, 5686, 5687, 5688
624, 1620, 1583, 1584, 1619, 5687, 5689, 5690, 5691
625, 1619, 1584, 1585, 1618, 5690, 5692, 5693, 5694
626, 1618, 1585, 1586, 1617, 5693, 5695, 5696, 5697
627, 1617, 1586, 1587, 1616, 5696, 5698, 5699, 5700
628, 1616, 1587, 1588, 1615, 5699, 5701, 5702, 5703
629, 1615, 1588, 1589, 1614, 5702, 5704, 5705, 5706
630, 1614, 1589, 1590, 1613, 5705, 5707, 5708, 5709
631, 1613, 1590, 1591, 1612, 5708, 5710, 5711, 5712
632, 1612, 1591, 1592, 1611, 5711, 5713, 5714, 5715
633, 1611, 1592, 1593, 1610, 5714, 5716, 5717, 5718
634, 1610, 1593, 1594, 1609, 5717, 5719, 5720, 5721
635, 1609, 1594, 1595, 1608, 5720, 5722, 5723, 5724
636, 1608, 1595, 1596, 1607, 5723, 5725, 5726, 5727
637, 1607, 1596, 1597, 1606, 5726, 5728, 5729, 5730
638, 1606, 1597, 1598, 1605, 5729, 5731, 5732, 5733
639, 1605, 1598, 1599, 1604, 5732, 5734, 5735, 5736
640, 1604, 1599, 1600, 1603, 5735, 5737, 5738, 5739
641, 1603, 1600, 1601, 1602, 5738, 5740, 5741, 5742
642, 1602, 1601,  274,  273, 5741, 5743, 5669, 5744
643,  281,  282, 1624, 1631, 5745, 5746, 5747, 5748
644, 1631, 1624, 1625, 1630, 5747, 5749, 5750, 5751
645, 1630, 1625, 1626, 1629, 5750, 5752, 5753, 5754
646, 1629, 1626, 1627, 1628, 5753, 5755, 5756, 5757
647, 1628, 1627,  283,  284, 5756, 5758, 5759, 5760
648,  285,  286,  282,  281, 5761, 5762, 5745, 5763
649,  287,  288, 1632, 1633, 5764, 5765, 5766, 5767
650, 1633, 1632,  286,  285, 5766, 5768, 5761, 5769
651,  289,  290, 1634, 1635, 5770, 5771, 5772, 5773
652, 1635, 1634,   85,  291, 5772, 5774, 5775, 5776
653,  292,  293,  294,  295, 5777, 5778, 5779, 5780
654,  296,  297, 1636, 1637, 5781, 5782, 5783, 5784
655, 1637, 1636,  293,  292, 5783, 5785, 5777, 5786
656,  297,  296, 1638, 1639, 5781, 5787, 5788, 5789
657, 1639, 1638,  298,  299, 5788, 5790, 5791, 5792
658,  299,  298, 1640, 1649, 5791, 5793, 5794, 5795
659, 1649, 1640, 1641, 1648, 5794, 5796, 5797, 5798
660, 1648, 1641, 1642, 1647, 5797, 5799, 5800, 5801
661, 1647, 1642, 1643, 1646, 5800, 5802, 5803, 5804
662, 1646, 1643, 1644, 1645, 5803, 5805, 5806, 5807
663, 1645, 1644,  300,  301, 5806, 5808, 5809, 5810
664,  301,  300, 1650, 1651, 5809, 5811, 5812, 5813
665, 1651, 1650,  302,  303, 5812, 5814, 5815, 5816
666,  303,  302,  304,  305, 5815, 5817, 5818, 5819
667,  305,  304,  306,  307, 5818, 5820, 5821, 5822
668,  307,  306,  308,  309, 5821, 5823, 5824, 5825
669,  310,  311,  309,  308, 5826, 5827, 5824, 5828
670,  312,  313, 1652, 1653, 5829, 5830, 5831, 5832
671, 1653, 1652,  311,  310, 5831, 5833, 5826, 5834
672,  314,  315,  313,  312, 5835, 5836, 5829, 5837
673,  316,  317, 1654, 1655, 5838, 5839, 5840, 5841
674, 1655, 1654,  315,  314, 5840, 5842, 5835, 5843
675,  318,  319,  317,  316, 5844, 5845, 5838, 5846
676,  320,  321, 1656, 1657, 5847, 5848, 5849, 5850
677, 1657, 1656,  319,  318, 5849, 5851, 5844, 5852
678,  322,  323,  321,  320, 5853, 5854, 5847, 5855
679,  324,  325, 1658, 1659, 5856, 5857, 5858, 5859
680, 1659, 1658,  323,  322, 5858, 5860, 5853, 5861
681,  326,  327,  325,  324, 5862, 5863, 5856, 5864
682,  328,  329, 1660, 1661, 5865, 5866, 5867, 5868
683, 1661, 1660,  327,  326, 5867, 5869, 5862, 5870
684,  330,  331,  329,  328, 5871, 5872, 5865, 5873
685,  332,  333, 1662, 1663, 5874, 5875, 5876, 5877
686, 1663, 1662,  331,  330, 5876, 5878, 5871, 5879
687,  332,  334,  335,  333, 5880, 5881, 5882, 5874
688,  336,  337, 1664, 1665, 5883, 5884, 5885, 5886
689, 1665, 1664,  334,  332, 5885, 5887, 5880, 5888
690,  338,  339,  337,  336, 5889, 5890, 5883, 5891
691,  340,  341, 1666, 1667, 5892, 5893, 5894, 5895
692, 1667, 1666,  339,  338, 5894, 5896, 5889, 5897
693,  342,  343,  341,  340, 5898, 5899, 5892, 5900
694,  344,  345, 1668, 1669, 5901, 5902, 5903, 5904
695, 1669, 1668,  343,  342, 5903, 5905, 5898, 5906
696,  346,  347,  345,  344, 5907, 5908, 5901, 5909
697,  348,  349, 1670, 1671, 5910, 5911, 5912, 5913
698, 1671, 1670,  347,  346, 5912, 5914, 5907, 5915
699,  350,  351,  349,  348, 5916, 5917, 5910, 5918
700,  352,  353, 1672, 1673, 5919, 5920, 5921, 5922
701, 1673, 1672,  351,  350, 5921, 5923, 5916, 5924
702,  354,  355,  356,  357, 5925, 5926, 5927, 5928
703,  358,  359,  353,  352, 5929, 5930, 5919, 5931
704,  360,  361, 1674, 1717, 5932, 5933, 5934, 5935
705, 1717, 1674, 1675, 1716, 5934, 5936, 5937, 5938
706, 1716, 1675, 1676, 1715, 5937, 5939, 5940, 5941
707, 1715, 1676, 1677, 1714, 5940, 5942, 5943, 5944
708, 1714, 1677, 1678, 1713, 5943, 5945, 5946, 5947
709, 1713, 1678, 1679, 1712, 5946, 5948, 5949, 5950
710, 1712, 1679, 1680, 1711, 5949, 5951, 5952, 5953
711, 1711, 1680, 1681, 1710, 5952, 5954, 5955, 5956
712, 1710, 1681, 1682, 1709, 5955, 5957, 5958, 5959
713, 1709, 1682, 1683, 1708, 5958, 5960, 5961, 5962
714, 1708, 1683, 1684, 1707, 5961, 5963, 5964, 5965
715, 1707, 1684, 1685, 1706, 5964, 5966, 5967, 5968
716, 1706, 1685, 1686, 1705, 5967, 5969, 5970, 5971
717, 1705, 1686, 1687, 1704, 5970, 5972, 5973, 5974
718, 1704, 1687, 1688, 1703, 5973, 5975, 5976, 5977
719, 1703, 1688, 1689, 1702, 5976, 5978, 5979, 5980
720, 1702, 1689, 1690, 1701, 5979, 5981, 5982, 5983
721, 1701, 1690, 1691, 1700, 5982, 5984, 5985, 5986
722, 1700, 1691, 1692, 1699, 5985, 5987, 5988, 5989
723, 1699, 1692, 1693, 1698, 5988, 5990, 5991, 5992
724, 1698, 1693, 1694, 1697, 5991, 5993, 5994, 5995
725, 1697, 1694, 1695, 1696, 5994, 5996, 5997, 5998
726, 1696, 1695,  355,  354, 5997, 5999, 5925, 6000
727,  362,  281, 1631, 1721, 6001, 5748, 6002, 6003
728, 1721, 1631, 1630, 1720, 6002, 5751, 6004, 6005
729, 1720, 1630, 1629, 1719, 6004, 5754, 6006, 6007
730, 1719, 1629, 1628, 1718, 6006, 5757, 6008, 6009
731, 1718, 1628,  284,  363, 6008, 5760, 6010, 6011
732,  364,  285,  281,  362, 6012, 5763, 6001, 6013
733,  365,  287, 1633, 1722, 6014, 5767, 6015, 6016
734, 1722, 1633,  285,  364, 6015, 5769, 6012, 6017
735,  290,  366, 1723, 1634, 6018, 6019, 6020, 5771
736, 1634, 1723,   86,   85, 6020, 6021, 4472, 5774
737,  367,  362, 1721, 1727, 6022, 6003, 6023, 6024
738, 1727, 1721, 1720, 1726, 6023, 6005, 6025, 6026
739, 1726, 1720, 1719, 1725, 6025, 6007, 6027, 6028
740, 1725, 1719, 1718, 1724, 6027, 6009, 6029, 6030
741, 1724, 1718,  363,  368, 6029, 6011, 6031, 6032
742,  369,  364,  362,  367, 6033, 6013, 6022, 6034
743,  370,  365, 1722, 1728, 6035, 6016, 6036, 6037
744, 1728, 1722,  364,  369, 6036, 6017, 6033, 6038
745,  366,  371, 1729, 1723, 6039, 6040, 6041, 6019
746, 1723, 1729,  179,   86, 6041, 6042, 4738, 6021
747,  372,  373, 1730, 1767, 6043, 6044, 6045, 6046
748, 1767, 1730, 1731, 1766, 6045, 6047, 6048, 6049
749, 1766, 1731, 1732, 1765, 6048, 6050, 6051, 6052
750, 1765, 1732, 1733, 1764, 6051, 6053, 6054, 6055
751, 1764, 1733, 1734, 1763, 6054, 6056, 6057, 6058
752, 1763, 1734, 1735, 1762, 6057, 6059, 6060, 6061
753, 1762, 1735, 1736, 1761, 6060, 6062, 6063, 6064
754, 1761, 1736, 1737, 1760, 6063, 6065, 6066, 6067
755, 1760, 1737, 1738, 1759, 6066, 6068, 6069, 6070
756, 1759, 1738, 1739, 1758, 6069, 6071, 6072, 6073
757, 1758, 1739, 1740, 1757, 6072, 6074, 6075, 6076
758, 1757, 1740, 1741, 1756, 6075, 6077, 6078, 6079
759, 1756, 1741, 1742, 1755, 6078, 6080, 6081, 6082
760, 1755, 1742, 1743, 1754, 6081, 6083, 6084, 6085
761, 1754, 1743, 1744, 1753, 6084, 6086, 6087, 6088
762, 1753, 1744, 1745, 1752, 6087, 6089, 6090, 6091
763, 1752, 1745, 1746, 1751, 6090, 6092, 6093, 6094
764, 1751, 1746, 1747, 1750, 6093, 6095, 6096, 6097
765, 1750, 1747, 1748, 1749, 6096, 6098, 6099, 6100
766, 1749, 1748,  374,  375, 6099, 6101, 6102, 6103
767,  376,  377, 1768, 1775, 6104, 6105, 6106, 6107
768, 1775, 1768, 1769, 1774, 6106, 6108, 6109, 6110
769, 1774, 1769, 1770, 1773, 6109, 6111, 6112, 6113
770, 1773, 1770, 1771, 1772, 6112, 6114, 6115, 6116
771, 1772, 1771,  368,  363, 6115, 6117, 6031, 6118
772,  373,  372,  378,  379, 6043, 6119, 6120, 6121
773,  377,  376,  380,  381, 6104, 6122, 6123, 6124
774,  382,  383, 1776, 1777, 6125, 6126, 6127, 6128
775, 1777, 1776,  379,  378, 6127, 6129, 6120, 6130
776,  384,  385, 1778, 1779, 6131, 6132, 6133, 6134
777, 1779, 1778,  381,  380, 6133, 6135, 6123, 6136
778,  386,  387,  383,  382, 6137, 6138, 6125, 6139
779,  388,  389,  385,  384, 6140, 6141, 6131, 6142
780,  387,  386,  390,  391, 6137, 6143, 6144, 6145
781,  389,  388, 1780, 1781, 6140, 6146, 6147, 6148
782, 1781, 1780,  392,  393, 6147, 6149, 6150, 6151
783,  391,  390,  394,  395, 6144, 6152, 6153, 6154
784,  395,  394,  393,  396, 6153, 6155, 6156, 6157
785,  396,  393,  392,  397, 6156, 6150, 6158, 6159
786,  398,  399, 1782, 1783, 6160, 6161, 6162, 6163
787, 1783, 1782,  396,  397, 6162, 6164, 6159, 6165
788,  399,  398,  400,  401, 6160, 6166, 6167, 6168
789,  401,  400, 1784, 1785, 6167, 6169, 6170, 6171
790, 1785, 1784,  402,  403, 6170, 6172, 6173, 6174
791,  404,  405, 1786, 1815, 6175, 6176, 6177, 6178
792, 1815, 1786, 1787, 1814, 6177, 6179, 6180, 6181
793, 1814, 1787, 1788, 1813, 6180, 6182, 6183, 6184
794, 1813, 1788, 1789, 1812, 6183, 6185, 6186, 6187
795, 1812, 1789, 1790, 1811, 6186, 6188, 6189, 6190
796, 1811, 1790, 1791, 1810, 6189, 6191, 6192, 6193
797, 1810, 1791, 1792, 1809, 6192, 6194, 6195, 6196
798, 1809, 1792, 1793, 1808, 6195, 6197, 6198, 6199
799, 1808, 1793, 1794, 1807, 6198, 6200, 6201, 6202
800, 1807, 1794, 1795, 1806, 6201, 6203, 6204, 6205
801, 1806, 1795, 1796, 1805, 6204, 6206, 6207, 6208
802, 1805, 1796, 1797, 1804, 6207, 6209, 6210, 6211
803, 1804, 1797, 1798, 1803, 6210, 6212, 6213, 6214
804, 1803, 1798, 1799, 1802, 6213, 6215, 6216, 6217
805, 1802, 1799, 1800, 1801, 6216, 6218, 6219, 6220
806, 1801, 1800,  406,  407, 6219, 6221, 6222, 6223
807,  408,  409,  403,  402, 6224, 6225, 6173, 6226
808,  405,  404,  410,  411, 6175, 6227, 6228, 6229
809,  412,  413, 1816, 1833, 6230, 6231, 6232, 6233
810, 1833, 1816, 1817, 1832, 6232, 6234, 6235, 6236
811, 1832, 1817, 1818, 1831, 6235, 6237, 6238, 6239
812, 1831, 1818, 1819, 1830, 6238, 6240, 6241, 6242
813, 1830, 1819, 1820, 1829, 6241, 6243, 6244, 6245
814, 1829, 1820, 1821, 1828, 6244, 6246, 6247, 6248
815, 1828, 1821, 1822, 1827, 6247, 6249, 6250, 6251
816, 1827, 1822, 1823, 1826, 6250, 6252, 6253, 6254
817, 1826, 1823, 1824, 1825, 6253, 6255, 6256, 6257
818, 1825, 1824,  409,  408, 6256, 6258, 6224, 6259
819,  411,  410, 1834, 1835, 6228, 6260, 6261, 6262
820, 1835, 1834,  414,  415, 6261, 6263, 6264, 6265
821,  416,  417,  413,  412, 6266, 6267, 6230, 6268
822,  418,  419,  415,  414, 6269, 6270, 6264, 6271
823,  420,  421, 1836, 1837, 6272, 6273, 6274, 6275
824, 1837, 1836,  417,  416, 6274, 6276, 6266, 6277
825,  419,  418,  422,  423, 6269, 6278, 6279, 6280
826,  424,  425,  421,  420, 6281, 6282, 6272, 6283
827,  423,  422,  426,  427, 6279, 6284, 6285, 6286
828,  428,  429,  425,  424, 6287, 6288, 6281, 6289
829,  430,  431,  427,  426, 6290, 6291, 6285, 6292
830,  432,  430,  429,  428, 6293, 6294, 6287, 6295
831,  433,  434, 1838, 1839, 6296, 6297, 6298, 6299
832, 1839, 1838,  435,  436, 6298, 6300, 6301, 6302
833,  437,  438,  439,  440, 6303, 6304, 6305, 6306
834,  441, 1840, 1849,  442, 6307, 6308, 6309, 6310
835, 1840, 1841, 1848, 1849, 6311, 6312, 6313, 6308
836, 1841, 1842, 1847, 1848, 6314, 6315, 6316, 6312
837, 1842, 1843, 1846, 1847, 6317, 6318, 6319, 6315
838, 1843, 1844, 1845, 1846, 6320, 6321, 6322, 6318
839, 1844,  434,  433, 1845, 6323, 6296, 6324, 6321
840,  443, 1850, 3606, 1852, 6325, 6326, 6327, 6328
841, 1850,  444, 1851, 3606, 6329, 6330, 6331, 6326
842, 1852, 3606, 1838,  434, 6327, 6332, 6297, 6333
843, 3606, 1851,  435, 1838, 6331, 6334, 6300, 6332
844,  444,  445,  438,  437, 6335, 6336, 6303, 6337
845,  440,  439,  446,  447, 6305, 6338, 6339, 6340
846,  448, 1853, 3607, 1858, 6341, 6342, 6343, 6344
847, 1853, 1854, 3608, 3607, 6345, 6346, 6347, 6342
848, 1854, 1855, 3609, 3608, 6348, 6349, 6350, 6346
849, 1855, 1856, 3610, 3609, 6351, 6352, 6353, 6349
850, 1856, 1857, 3611, 3610, 6354, 6355, 6356, 6352
851, 1857,  443, 1852, 3611, 6357, 6328, 6358, 6355
852, 1858, 3607, 1840,  441, 6343, 6359, 6307, 6360
853, 3607, 3608, 1841, 1840, 6347, 6361, 6311, 6359
854, 3608, 3609, 1842, 1841, 6350, 6362, 6314, 6361
855, 3609, 3610, 1843, 1842, 6353, 6363, 6317, 6362
856, 3610, 3611, 1844, 1843, 6356, 6364, 6320, 6363
857, 3611, 1852,  434, 1844, 6358, 6333, 6323, 6364
858,  443,  449, 1859, 1850, 6365, 6366, 6367, 6325
859, 1850, 1859,  445,  444, 6367, 6368, 6335, 6329
860,  450,  451,  447,  446, 6369, 6370, 6339, 6371
861,  448,  452, 1860, 1853, 6372, 6373, 6374, 6341
862, 1853, 1860, 1861, 1854, 6374, 6375, 6376, 6345
863, 1854, 1861, 1862, 1855, 6376, 6377, 6378, 6348
864, 1855, 1862, 1863, 1856, 6378, 6379, 6380, 6351
865, 1856, 1863, 1864, 1857, 6380, 6381, 6382, 6354
866, 1857, 1864,  449,  443, 6382, 6383, 6365, 6357
867,  451,  450, 1865, 1866, 6369, 6384, 6385, 6386
868, 1866, 1865,  453,  454, 6385, 6387, 6388, 6389
869,  455,  456, 1867, 1868, 6390, 6391, 6392, 6393
870, 1868, 1867,  452,  448, 6392, 6394, 6372, 6395
871,  457,  458,  454,  453, 6396, 6397, 6388, 6398
872,  459,  460, 1869, 1870, 6399, 6400, 6401, 6402
873, 1870, 1869,  456,  455, 6401, 6403, 6390, 6404
874,  458,  457, 1871, 1872, 6396, 6405, 6406, 6407
875, 1872, 1871,  461,  462, 6406, 6408, 6409, 6410
876,  463,  464,  460,  459, 6411, 6412, 6399, 6413
877,  462,  461,  465,  466, 6409, 6414, 6415, 6416
878,  464,  463, 1873, 1874, 6411, 6417, 6418, 6419
879, 1874, 1873,  467,  468, 6418, 6420, 6421, 6422
880,  466,  465, 1875, 1876, 6415, 6423, 6424, 6425
881, 1876, 1875,  469,  470, 6424, 6426, 6427, 6428
882,  468,  467,  471,  472, 6421, 6429, 6430, 6431
883,  470,  469,  473,  474, 6427, 6432, 6433, 6434
884,  475,  476, 1877, 1878, 6435, 6436, 6437, 6438
885, 1878, 1877,  471,  467, 6437, 6439, 6429, 6440
886,  474,  473, 1879, 1880, 6433, 6441, 6442, 6443
887, 1880, 1879,  477,  478, 6442, 6444, 6445, 6446
888,  476,  475,  479,  480, 6435, 6447, 6448, 6449
889,  478,  477,  481,  482, 6445, 6450, 6451, 6452
890,  480,  479,  483,  484, 6448, 6453, 6454, 6455
891,  482,  481, 1881, 1882, 6451, 6456, 6457, 6458
892, 1882, 1881,  485,  486, 6457, 6459, 6460, 6461
893,  487,  488,  484,  483, 6462, 6463, 6454, 6464
894,  486,  485,  489,  490, 6460, 6465, 6466, 6467
895,  488,  487,  491,  492, 6462, 6468, 6469, 6470
896,  490,  489, 1883, 1884, 6466, 6471, 6472, 6473
897, 1884, 1883,  493,  494, 6472, 6474, 6475, 6476
898,  492,  491,  495,  496, 6469, 6477, 6478, 6479
899,  494,  493,  497,  498, 6475, 6480, 6481, 6482
900,  496,  495,  499,  500, 6478, 6483, 6484, 6485
901,  498,  497, 1885, 1886, 6481, 6486, 6487, 6488
902, 1886, 1885,  501,  502, 6487, 6489, 6490, 6491
903,  503,  504,  500,  499, 6492, 6493, 6484, 6494
904,  502,  501,  505,  506, 6490, 6495, 6496, 6497
905,  504,  503, 1887, 1888, 6492, 6498, 6499, 6500
906, 1888, 1887,  507,  508, 6499, 6501, 6502, 6503
907,  506,  505, 1889, 1896, 6496, 6504, 6505, 6506
908, 1896, 1889, 1890, 1895, 6505, 6507, 6508, 6509
909, 1895, 1890, 1891, 1894, 6508, 6510, 6511, 6512
910, 1894, 1891, 1892, 1893, 6511, 6513, 6514, 6515
911, 1893, 1892,  509,  510, 6514, 6516, 6517, 6518
912,  511,  512,  508,  507, 6519, 6520, 6502, 6521
913,  513,  514, 1897, 1904, 6522, 6523, 6524, 6525
914, 1904, 1897, 1898, 1903, 6524, 6526, 6527, 6528
915, 1903, 1898, 1899, 1902, 6527, 6529, 6530, 6531
916, 1902, 1899, 1900, 1901, 6530, 6532, 6533, 6534
917, 1901, 1900,  510,  509, 6533, 6535, 6517, 6536
918,  515,  516, 1905, 1948, 6537, 6538, 6539, 6540
919, 1948, 1905, 1906, 1947, 6539, 6541, 6542, 6543
920, 1947, 1906, 1907, 1946, 6542, 6544, 6545, 6546
921, 1946, 1907, 1908, 1945, 6545, 6547, 6548, 6549
922, 1945, 1908, 1909, 1944, 6548, 6550, 6551, 6552
923, 1944, 1909, 1910, 1943, 6551, 6553, 6554, 6555
924, 1943, 1910, 1911, 1942, 6554, 6556, 6557, 6558
925, 1942, 1911, 1912, 1941, 6557, 6559, 6560, 6561
926, 1941, 1912, 1913, 1940, 6560, 6562, 6563, 6564
927, 1940, 1913, 1914, 1939, 6563, 6565, 6566, 6567
928, 1939, 1914, 1915, 1938, 6566, 6568, 6569, 6570
929, 1938, 1915, 1916, 1937, 6569, 6571, 6572, 6573
930, 1937, 1916, 1917, 1936, 6572, 6574, 6575, 6576
931, 1936, 1917, 1918, 1935, 6575, 6577, 6578, 6579
932, 1935, 1918, 1919, 1934, 6578, 6580, 6581, 6582
933, 1934, 1919, 1920, 1933, 6581, 6583, 6584, 6585
934, 1933, 1920, 1921, 1932, 6584, 6586, 6587, 6588
935, 1932, 1921, 1922, 1931, 6587, 6589, 6590, 6591
936, 1931, 1922, 1923, 1930, 6590, 6592, 6593, 6594
937, 1930, 1923, 1924, 1929, 6593, 6595, 6596, 6597
938, 1929, 1924, 1925, 1928, 6596, 6598, 6599, 6600
939, 1928, 1925, 1926, 1927, 6599, 6601, 6602, 6603
940, 1927, 1926,  512,  511, 6602, 6604, 6519, 6605
941,  514,  513,  517,  518, 6522, 6606, 6607, 6608
942,  519,  520, 1949, 1950, 6609, 6610, 6611, 6612
943, 1950, 1949,  516,  515, 6611, 6613, 6537, 6614
944,  521,  522, 1951, 1952, 6615, 6616, 6617, 6618
945, 1952, 1951,  518,  517, 6617, 6619, 6607, 6620
946,  523,  524,  520,  519, 6621, 6622, 6609, 6623
947,  525,  526,  522,  521, 6624, 6625, 6615, 6626
948,  527,  528, 1953, 1954, 6627, 6628, 6629, 6630
949, 1954, 1953,  524,  523, 6629, 6631, 6621, 6632
950,  526,  525, 1955, 1956, 6624, 6633, 6634, 6635
951, 1956, 1955,  529,  530, 6634, 6636, 6637, 6638
952,  531,  532,  528,  527, 6639, 6640, 6627, 6641
953,  530,  529,  533,  534, 6637, 6642, 6643, 6644
954,  535,  536, 1957, 1958, 6645, 6646, 6647, 6648
955, 1958, 1957,  532,  531, 6647, 6649, 6639, 6650
956,  537,  538, 1959, 1960, 6651, 6652, 6653, 6654
957, 1960, 1959,  534,  533, 6653, 6655, 6643, 6656
958,  536,  535,  539,  540, 6645, 6657, 6658, 6659
959,  538,  537,  541,  542, 6651, 6660, 6661, 6662
960,  543,  544, 1961, 1962, 6663, 6664, 6665, 6666
961, 1962, 1961,  540,  539, 6665, 6667, 6658, 6668
962,  542,  541, 1963, 1964, 6661, 6669, 6670, 6671
963, 1964, 1963,  545,  546, 6670, 6672, 6673, 6674
964,  547,  548,  544,  543, 6675, 6676, 6663, 6677
965,  549,  550,  546,  545, 6678, 6679, 6673, 6680
966,  551,  552, 1965, 1966, 6681, 6682, 6683, 6684
967, 1966, 1965,  548,  547, 6683, 6685, 6675, 6686
968,  553,  554, 1967, 1984, 6687, 6688, 6689, 6690
969, 1984, 1967, 1968, 1983, 6689, 6691, 6692, 6693
970, 1983, 1968, 1969, 1982, 6692, 6694, 6695, 6696
971, 1982, 1969, 1970, 1981, 6695, 6697, 6698, 6699
972, 1981, 1970, 1971, 1980, 6698, 6700, 6701, 6702
973, 1980, 1971, 1972, 1979, 6701, 6703, 6704, 6705
974, 1979, 1972, 1973, 1978, 6704, 6706, 6707, 6708
975, 1978, 1973, 1974, 1977, 6707, 6709, 6710, 6711
976, 1977, 1974, 1975, 1976, 6710, 6712, 6713, 6714
977, 1976, 1975,  550,  549, 6713, 6715, 6678, 6716
978,  555,  556,  552,  551, 6717, 6718, 6681, 6719
979,  557,  558,  554,  553, 6720, 6721, 6687, 6722
980,  559,  560, 1985, 1986, 6723, 6724, 6725, 6726
981, 1986, 1985,  556,  555, 6725, 6727, 6717, 6728
982,  561,  562, 1987, 1988, 6729, 6730, 6731, 6732
983, 1988, 1987,  558,  557, 6731, 6733, 6720, 6734
984,  563,  564,  560,  559, 6735, 6736, 6723, 6737
985,  565,  566,  562,  561, 6738, 6739, 6729, 6740
986,  567,  568, 1989, 1990, 6741, 6742, 6743, 6744
987, 1990, 1989,  564,  563, 6743, 6745, 6735, 6746
988,  569,  570,  566,  565, 6747, 6748, 6738, 6749
989,  568,  567,  571,  572, 6741, 6750, 6751, 6752
990,  573,  574,  570,  569, 6753, 6754, 6747, 6755
991,  571,  567, 1991, 1992, 6750, 6756, 6757, 6758
992, 1992, 1991,  575,  576, 6757, 6759, 6760, 6761
993,  574,  573,  577,  578, 6753, 6762, 6763, 6764
994,  579,  580,  576,  575, 6765, 6766, 6760, 6767
995,  578,  577,  581,  582, 6763, 6768, 6769, 6770
996,  580,  579, 1993, 1994, 6765, 6771, 6772, 6773
997, 1994, 1993,  583,  584, 6772, 6774, 6775, 6776
998,  585,  586,  582,  581, 6777, 6778, 6769, 6779
 999,  584,  583, 1995, 1996, 6775, 6780, 6781, 6782
1000, 1996, 1995,  587,  588, 6781, 6783, 6784, 6785
1001,  586,  585,  589,  590, 6777, 6786, 6787, 6788
1002,  588,  587, 1997, 2006, 6784, 6789, 6790, 6791
1003, 2006, 1997, 1998, 2005, 6790, 6792, 6793, 6794
1004, 2005, 1998, 1999, 2004, 6793, 6795, 6796, 6797
1005, 2004, 1999, 2000, 2003, 6796, 6798, 6799, 6800
1006, 2003, 2000, 2001, 2002, 6799, 6801, 6802, 6803
1007, 2002, 2001,  591,  592, 6802, 6804, 6805, 6806
1008,  590,  589, 2007, 2008, 6787, 6807, 6808, 6809
1009, 2008, 2007,  593,  594, 6808, 6810, 6811, 6812
1010,  592,  591, 2009, 2010, 6805, 6813, 6814, 6815
1011, 2010, 2009,  595,  596, 6814, 6816, 6817, 6818
1012,  594,  593,  597,  598, 6811, 6819, 6820, 6821
1013,  596,  595,  599,  600, 6817, 6822, 6823, 6824
1014,  601,  602, 2011, 2012, 6825, 6826, 6827, 6828
1015, 2012, 2011,  594,  598, 6827, 6829, 6821, 6830
1016,  600,  599,  603,  604, 6823, 6831, 6832, 6833
1017,  605,  606,  602,  601, 6834, 6835, 6825, 6836
1018,  604,  603,  607,  608, 6832, 6837, 6838, 6839
1019,  606,  605,  609,  610, 6834, 6840, 6841, 6842
1020,  611,  612,  608,  607, 6843, 6844, 6838, 6845
1021,  610,  609,  613,  614, 6841, 6846, 6847, 6848
1022,  615,  616, 2013, 2014, 6849, 6850, 6851, 6852
1023, 2014, 2013,  612,  611, 6851, 6853, 6843, 6854
1024,  614,  613,  617,  618, 6847, 6855, 6856, 6857
1025,  619,  620,  616,  615, 6858, 6859, 6849, 6860
1026,  621,  622,  618,  617, 6861, 6862, 6856, 6863
1027,  623,  624, 2015, 2016, 6864, 6865, 6866, 6867
1028, 2016, 2015,  620,  619, 6866, 6868, 6858, 6869
1029,  622,  621,  625,  626, 6861, 6870, 6871, 6872
1030,  627,  628,  624,  623, 6873, 6874, 6864, 6875
1031,  626,  625,  629,  630, 6871, 6876, 6877, 6878
1032,  631,  632, 2017, 2018, 6879, 6880, 6881, 6882
1033, 2018, 2017,  628,  627, 6881, 6883, 6873, 6884
1034,  633,  634, 2019, 2020, 6885, 6886, 6887, 6888
1035, 2020, 2019,  630,  629, 6887, 6889, 6877, 6890
1036,  635,  636,  632,  631, 6891, 6892, 6879, 6893
1037,  637,  638,  634,  633, 6894, 6895, 6885, 6896
1038,  639,  640, 2021, 2022, 6897, 6898, 6899, 6900
1039, 2022, 2021,  636,  635, 6899, 6901, 6891, 6902
1040,  641,  642, 2023, 2052, 6903, 6904, 6905, 6906
1041, 2052, 2023, 2024, 2051, 6905, 6907, 6908, 6909
1042, 2051, 2024, 2025, 2050, 6908, 6910, 6911, 6912
1043, 2050, 2025, 2026, 2049, 6911, 6913, 6914, 6915
1044, 2049, 2026, 2027, 2048, 6914, 6916, 6917, 6918
1045, 2048, 2027, 2028, 2047, 6917, 6919, 6920, 6921
1046, 2047, 2028, 2029, 2046, 6920, 6922, 6923, 6924
1047, 2046, 2029, 2030, 2045, 6923, 6925, 6926, 6927
1048, 2045, 2030, 2031, 2044, 6926, 6928, 6929, 6930
1049, 2044, 2031, 2032, 2043, 6929, 6931, 6932, 6933
1050, 2043, 2032, 2033, 2042, 6932, 6934, 6935, 6936
1051, 2042, 2033, 2034, 2041, 6935, 6937, 6938, 6939
1052, 2041, 2034, 2035, 2040, 6938, 6940, 6941, 6942
1053, 2040, 2035, 2036, 2039, 6941, 6943, 6944, 6945
1054, 2039, 2036, 2037, 2038, 6944, 6946, 6947, 6948
1055, 2038, 2037,  638,  637, 6947, 6949, 6894, 6950
1056,  643,  644,  640,  639, 6951, 6952, 6897, 6953
1057,  642,  641, 2053, 2060, 6903, 6954, 6955, 6956
1058, 2060, 2053, 2054, 2059, 6955, 6957, 6958, 6959
1059, 2059, 2054, 2055, 2058, 6958, 6960, 6961, 6962
1060, 2058, 2055, 2056, 2057, 6961, 6963, 6964, 6965
1061, 2057, 2056,  645,  646, 6964, 6966, 6967, 6968
1062,  647,  648, 2061, 2062, 6969, 6970, 6971, 6972
1063, 2062, 2061,  644,  643, 6971, 6973, 6951, 6974
1064,  646,  645, 2063, 2108, 6967, 6975, 6976, 6977
1065, 2108, 2063, 2064, 2107, 6976, 6978, 6979, 6980
1066, 2107, 2064, 2065, 2106, 6979, 6981, 6982, 6983
1067, 2106, 2065, 2066, 2105, 6982, 6984, 6985, 6986
1068, 2105, 2066, 2067, 2104, 6985, 6987, 6988, 6989
1069, 2104, 2067, 2068, 2103, 6988, 6990, 6991, 6992
1070, 2103, 2068, 2069, 2102, 6991, 6993, 6994, 6995
1071, 2102, 2069, 2070, 2101, 6994, 6996, 6997, 6998
1072, 2101, 2070, 2071, 2100, 6997, 6999, 7000, 7001
1073, 2100, 2071, 2072, 2099, 7000, 7002, 7003, 7004
1074, 2099, 2072, 2073, 2098, 7003, 7005, 7006, 7007
1075, 2098, 2073, 2074, 2097, 7006, 7008, 7009, 7010
1076, 2097, 2074, 2075, 2096, 7009, 7011, 7012, 7013
1077, 2096, 2075, 2076, 2095, 7012, 7014, 7015, 7016
1078, 2095, 2076, 2077, 2094, 7015, 7017, 7018, 7019
1079, 2094, 2077, 2078, 2093, 7018, 7020, 7021, 7022
1080, 2093, 2078, 2079, 2092, 7021, 7023, 7024, 7025
1081, 2092, 2079, 2080, 2091, 7024, 7026, 7027, 7028
1082, 2091, 2080, 2081, 2090, 7027, 7029, 7030, 7031
1083, 2090, 2081, 2082, 2089, 7030, 7032, 7033, 7034
1084, 2089, 2082, 2083, 2088, 7033, 7035, 7036, 7037
1085, 2088, 2083, 2084, 2087, 7036, 7038, 7039, 7040
1086, 2087, 2084, 2085, 2086, 7039, 7041, 7042, 7043
1087, 2086, 2085,  649,  650, 7042, 7044, 7045, 7046
1088,  651,  652,  648,  647, 7047, 7048, 6969, 7049
1089,  653,  654, 2109, 2110, 7050, 7051, 7052, 7053
1090, 2110, 2109,  650,  649, 7052, 7054, 7045, 7055
1091,  655,  656, 2111, 2112, 7056, 7057, 7058, 7059
1092, 2112, 2111,  652,  651, 7058, 7060, 7047, 7061
1093,  657,  658,  654,  653, 7062, 7063, 7050, 7064
1094,  659,  660,  656,  655, 7065, 7066, 7056, 7067
1095,  661,  662, 2113, 2114, 7068, 7069, 7070, 7071
1096, 2114, 2113,  658,  657, 7070, 7072, 7062, 7073
1097,  663,  664, 2115, 2116, 7074, 7075, 7076, 7077
1098, 2116, 2115,  660,  659, 7076, 7078, 7065, 7079
1099,  665,  662,  661,  666, 7080, 7068, 7081, 7082
1100,  663,  667,  668,  664, 7083, 7084, 7085, 7074
1101,  662,  665, 2117, 2118, 7080, 7086, 7087, 7088
1102, 2118, 2117,  669,  670, 7087, 7089, 7090, 7091
1103,  671,  672, 2119, 2120, 7092, 7093, 7094, 7095
1104, 2120, 2119,  667,  663, 7094, 7096, 7083, 7097
1105,  670,  669,  673,  674, 7090, 7098, 7099, 7100
1106,  675,  676,  672,  671, 7101, 7102, 7092, 7103
1107,  674,  673,  677,  678, 7099, 7104, 7105, 7106
1108,  679,  680, 2121, 2122, 7107, 7108, 7109, 7110
1109, 2122, 2121,  676,  675, 7109, 7111, 7101, 7112
1110,  678,  677,  681,  682, 7105, 7113, 7114, 7115
1111,  683,  684,  680,  679, 7116, 7117, 7107, 7118
1112,  685,  686,  682,  681, 7119, 7120, 7114, 7121
1113,  687,  688, 2123, 2124, 7122, 7123, 7124, 7125
1114, 2124, 2123,  684,  683, 7124, 7126, 7116, 7127
1115,  686,  685,  689,  690, 7119, 7128, 7129, 7130
1116,  691,  692,  688,  687, 7131, 7132, 7122, 7133
1117,  690,  689,  693,  694, 7129, 7134, 7135, 7136
1118,  695,  696, 2125, 2126, 7137, 7138, 7139, 7140
1119, 2126, 2125,  692,  691, 7139, 7141, 7131, 7142
1120,  694,  693,  697,  698, 7135, 7143, 7144, 7145
1121,  699,  700,  696,  695, 7146, 7147, 7137, 7148
1122,  698,  697, 2127, 2128, 7144, 7149, 7150, 7151
1123, 2128, 2127,  701,  702, 7150, 7152, 7153, 7154
1124,  703,  704, 2129, 2130, 7155, 7156, 7157, 7158
1125, 2130, 2129,  700,  699, 7157, 7159, 7146, 7160
1126,  702,  701,  705,  706, 7153, 7161, 7162, 7163
1127,  707,  708,  704,  703, 7164, 7165, 7155, 7166
1128,  709,  710, 2131, 2132, 7167, 7168, 7169, 7170
1129, 2132, 2131,  702,  706, 7169, 7171, 7163, 7172
1130,  711,  712, 2133, 2134, 7173, 7174, 7175, 7176
1131, 2134, 2133,  708,  707, 7175, 7177, 7164, 7178
1132,  713,  714,  710,  709, 7179, 7180, 7167, 7181
1133,  715,  716,  712,  711, 7182, 7183, 7173, 7184
1134,  717,  718, 2135, 2136, 7185, 7186, 7187, 7188
1135, 2136, 2135,  714,  713, 7187, 7189, 7179, 7190
1136,  719,  720, 2137, 2138, 7191, 7192, 7193, 7194
1137, 2138, 2137,  716,  715, 7193, 7195, 7182, 7196
1138,  718,  717, 2139, 2184, 7185, 7197, 7198, 7199
1139, 2184, 2139, 2140, 2183, 7198, 7200, 7201, 7202
1140, 2183, 2140, 2141, 2182, 7201, 7203, 7204, 7205
1141, 2182, 2141, 2142, 2181, 7204, 7206, 7207, 7208
1142, 2181, 2142, 2143, 2180, 7207, 7209, 7210, 7211
1143, 2180, 2143, 2144, 2179, 7210, 7212, 7213, 7214
1144, 2179, 2144, 2145, 2178, 7213, 7215, 7216, 7217
1145, 2178, 2145, 2146, 2177, 7216, 7218, 7219, 7220
1146, 2177, 2146, 2147, 2176, 7219, 7221, 7222, 7223
1147, 2176, 2147, 2148, 2175, 7222, 7224, 7225, 7226
1148, 2175, 2148, 2149, 2174, 7225, 7227, 7228, 7229
1149, 2174, 2149, 2150, 2173, 7228, 7230, 7231, 7232
1150, 2173, 2150, 2151, 2172, 7231, 7233, 7234, 7235
1151, 2172, 2151, 2152, 2171, 7234, 7236, 7237, 7238
1152, 2171, 2152, 2153, 2170, 7237, 7239, 7240, 7241
1153, 2170, 2153, 2154, 2169, 7240, 7242, 7243, 7244
1154, 2169, 2154, 2155, 2168, 7243, 7245, 7246, 7247
1155, 2168, 2155, 2156, 2167, 7246, 7248, 7249, 7250
1156, 2167, 2156, 2157, 2166, 7249, 7251, 7252, 7253
1157, 2166, 2157, 2158, 2165, 7252, 7254, 7255, 7256
1158, 2165, 2158, 2159, 2164, 7255, 7257, 7258, 7259
1159, 2164, 2159, 2160, 2163, 7258, 7260, 7261, 7262
1160, 2163, 2160, 2161, 2162, 7261, 7263, 7264, 7265
1161, 2162, 2161,  721,  722, 7264, 7266, 7267, 7268
1162,  720,  719, 2185, 2228, 7191, 7269, 7270, 7271
1163, 2228, 2185, 2186, 2227, 7270, 7272, 7273, 7274
1164, 2227, 2186, 2187, 2226, 7273, 7275, 7276, 7277
1165, 2226, 2187, 2188, 2225, 7276, 7278, 7279, 7280
1166, 2225, 2188, 2189, 2224, 7279, 7281, 7282, 7283
1167, 2224, 2189, 2190, 2223, 7282, 7284, 7285, 7286
1168, 2223, 2190, 2191, 2222, 7285, 7287, 7288, 7289
1169, 2222, 2191, 2192, 2221, 7288, 7290, 7291, 7292
1170, 2221, 2192, 2193, 2220, 7291, 7293, 7294, 7295
1171, 2220, 2193, 2194, 2219, 7294, 7296, 7297, 7298
1172, 2219, 2194, 2195, 2218, 7297, 7299, 7300, 7301
1173, 2218, 2195, 2196, 2217, 7300, 7302, 7303, 7304
1174, 2217, 2196, 2197, 2216, 7303, 7305, 7306, 7307
1175, 2216, 2197, 2198, 2215, 7306, 7308, 7309, 7310
1176, 2215, 2198, 2199, 2214, 7309, 7311, 7312, 7313
1177, 2214, 2199, 2200, 2213, 7312, 7314, 7315, 7316
1178, 2213, 2200, 2201, 2212, 7315, 7317, 7318, 7319
1179, 2212, 2201, 2202, 2211, 7318, 7320, 7321, 7322
1180, 2211, 2202, 2203, 2210, 7321, 7323, 7324, 7325
1181, 2210, 2203, 2204, 2209, 7324, 7326, 7327, 7328
1182, 2209, 2204, 2205, 2208, 7327, 7329, 7330, 7331
1183, 2208, 2205, 2206, 2207, 7330, 7332, 7333, 7334
1184, 2207, 2206,  723,  724, 7333, 7335, 7336, 7337
1185,  722,  721, 2229, 2236, 7267, 7338, 7339, 7340
1186, 2236, 2229, 2230, 2235, 7339, 7341, 7342, 7343
1187, 2235, 2230, 2231, 2234, 7342, 7344, 7345, 7346
1188, 2234, 2231, 2232, 2233, 7345, 7347, 7348, 7349
1189, 2233, 2232,  725,  726, 7348, 7350, 7351, 7352
1190,  724,  723,  727,  728, 7336, 7353, 7354, 7355
1191,  726,  725, 2237, 2266, 7351, 7356, 7357, 7358
1192, 2266, 2237, 2238, 2265, 7357, 7359, 7360, 7361
1193, 2265, 2238, 2239, 2264, 7360, 7362, 7363, 7364
1194, 2264, 2239, 2240, 2263, 7363, 7365, 7366, 7367
1195, 2263, 2240, 2241, 2262, 7366, 7368, 7369, 7370
1196, 2262, 2241, 2242, 2261, 7369, 7371, 7372, 7373
1197, 2261, 2242, 2243, 2260, 7372, 7374, 7375, 7376
1198, 2260, 2243, 2244, 2259, 7375, 7377, 7378, 7379
1199, 2259, 2244, 2245, 2258, 7378, 7380, 7381, 7382
1200, 2258, 2245, 2246, 2257, 7381, 7383, 7384, 7385
1201, 2257, 2246, 2247, 2256, 7384, 7386, 7387, 7388
1202, 2256, 2247, 2248, 2255, 7387, 7389, 7390, 7391
1203, 2255, 2248, 2249, 2254, 7390, 7392, 7393, 7394
1204, 2254, 2249, 2250, 2253, 7393, 7395, 7396, 7397
1205, 2253, 2250, 2251, 2252, 7396, 7398, 7399, 7400
1206, 2252, 2251,  729,  730, 7399, 7401, 7402, 7403
1207,  724,  728, 2267, 2274, 7355, 7404, 7405, 7406
1208, 2274, 2267, 2268, 2273, 7405, 7407, 7408, 7409
1209, 2273, 2268, 2269, 2272, 7408, 7410, 7411, 7412
1210, 2272, 2269, 2270, 2271, 7411, 7413, 7414, 7415
1211, 2271, 2270,  731,  732, 7414, 7416, 7417, 7418
1212,  730,  729,  733,  734, 7402, 7419, 7420, 7421
1213,  732,  731, 2275, 2282, 7417, 7422, 7423, 7424
1214, 2282, 2275, 2276, 2281, 7423, 7425, 7426, 7427
1215, 2281, 2276, 2277, 2280, 7426, 7428, 7429, 7430
1216, 2280, 2277, 2278, 2279, 7429, 7431, 7432, 7433
1217, 2279, 2278,  735,  736, 7432, 7434, 7435, 7436
1218,  733,  729, 2283, 2300, 7419, 7437, 7438, 7439
1219, 2300, 2283, 2284, 2299, 7438, 7440, 7441, 7442
1220, 2299, 2284, 2285, 2298, 7441, 7443, 7444, 7445
1221, 2298, 2285, 2286, 2297, 7444, 7446, 7447, 7448
1222, 2297, 2286, 2287, 2296, 7447, 7449, 7450, 7451
1223, 2296, 2287, 2288, 2295, 7450, 7452, 7453, 7454
1224, 2295, 2288, 2289, 2294, 7453, 7455, 7456, 7457
1225, 2294, 2289, 2290, 2293, 7456, 7458, 7459, 7460
1226, 2293, 2290, 2291, 2292, 7459, 7461, 7462, 7463
1227, 2292, 2291,  737,  738, 7462, 7464, 7465, 7466
1228,  739,  736,  735,  740, 7467, 7435, 7468, 7469
1229,  737,  741,  742,  738, 7470, 7471, 7472, 7465
1230,  736,  739, 2301, 2338, 7467, 7473, 7474, 7475
1231, 2338, 2301, 2302, 2337, 7474, 7476, 7477, 7478
1232, 2337, 2302, 2303, 2336, 7477, 7479, 7480, 7481
1233, 2336, 2303, 2304, 2335, 7480, 7482, 7483, 7484
1234, 2335, 2304, 2305, 2334, 7483, 7485, 7486, 7487
1235, 2334, 2305, 2306, 2333, 7486, 7488, 7489, 7490
1236, 2333, 2306, 2307, 2332, 7489, 7491, 7492, 7493
1237, 2332, 2307, 2308, 2331, 7492, 7494, 7495, 7496
1238, 2331, 2308, 2309, 2330, 7495, 7497, 7498, 7499
1239, 2330, 2309, 2310, 2329, 7498, 7500, 7501, 7502
1240, 2329, 2310, 2311, 2328, 7501, 7503, 7504, 7505
1241, 2328, 2311, 2312, 2327, 7504, 7506, 7507, 7508
1242, 2327, 2312, 2313, 2326, 7507, 7509, 7510, 7511
1243, 2326, 2313, 2314, 2325, 7510, 7512, 7513, 7514
1244, 2325, 2314, 2315, 2324, 7513, 7515, 7516, 7517
1245, 2324, 2315, 2316, 2323, 7516, 7518, 7519, 7520
1246, 2323, 2316, 2317, 2322, 7519, 7521, 7522, 7523
1247, 2322, 2317, 2318, 2321, 7522, 7524, 7525, 7526
1248, 2321, 2318, 2319, 2320, 7525, 7527, 7528, 7529
1249, 2320, 2319,  743,  744, 7528, 7530, 7531, 7532
1250,  745,  746, 2339, 2376, 7533, 7534, 7535, 7536
1251, 2376, 2339, 2340, 2375, 7535, 7537, 7538, 7539
1252, 2375, 2340, 2341, 2374, 7538, 7540, 7541, 7542
1253, 2374, 2341, 2342, 2373, 7541, 7543, 7544, 7545
1254, 2373, 2342, 2343, 2372, 7544, 7546, 7547, 7548
1255, 2372, 2343, 2344, 2371, 7547, 7549, 7550, 7551
1256, 2371, 2344, 2345, 2370, 7550, 7552, 7553, 7554
1257, 2370, 2345, 2346, 2369, 7553, 7555, 7556, 7557
1258, 2369, 2346, 2347, 2368, 7556, 7558, 7559, 7560
1259, 2368, 2347, 2348, 2367, 7559, 7561, 7562, 7563
1260, 2367, 2348, 2349, 2366, 7562, 7564, 7565, 7566
1261, 2366, 2349, 2350, 2365, 7565, 7567, 7568, 7569
1262, 2365, 2350, 2351, 2364, 7568, 7570, 7571, 7572
1263, 2364, 2351, 2352, 2363, 7571, 7573, 7574, 7575
1264, 2363, 2352, 2353, 2362, 7574, 7576, 7577, 7578
1265, 2362, 2353, 2354, 2361, 7577, 7579, 7580, 7581
1266, 2361, 2354, 2355, 2360, 7580, 7582, 7583, 7584
1267, 2360, 2355, 2356, 2359, 7583, 7585, 7586, 7587
1268, 2359, 2356, 2357, 2358, 7586, 7588, 7589, 7590
1269, 2358, 2357,  741,  737, 7589, 7591, 7470, 7592
1270,  747,  748, 2377, 2378, 7593, 7594, 7595, 7596
1271, 2378, 2377,  744,  743, 7595, 7597, 7531, 7598
1272,  746,  745, 2379, 2380, 7533, 7599, 7600, 7601
1273, 2380, 2379,  749,  750, 7600, 7602, 7603, 7604
1274,  748,  747,  751,  752, 7593, 7605, 7606, 7607
1275,  753,  754,  750,  749, 7608, 7609, 7603, 7610
1276,  755,  756, 2381, 2382, 7611, 7612, 7613, 7614
1277, 2382, 2381,  752,  751, 7613, 7615, 7606, 7616
1278,  754,  753, 2383, 2384, 7608, 7617, 7618, 7619
1279, 2384, 2383,  757,  758, 7618, 7620, 7621, 7622
1280,  755,  759,  760,  756, 7623, 7624, 7625, 7611
1281,  761,  758,  757,  762, 7626, 7621, 7627, 7628
1282,  759,  755, 2385, 2386, 7623, 7629, 7630, 7631
1283, 2386, 2385,  763,  764, 7630, 7632, 7633, 7634
1284,  765,  766, 2387, 2388, 7635, 7636, 7637, 7638
1285, 2388, 2387,  758,  761, 7637, 7639, 7626, 7640
1286,  767,  768,  764,  763, 7641, 7642, 7633, 7643
1287,  766,  765,  769,  770, 7635, 7644, 7645, 7646
1288,  768,  767, 2389, 2390, 7641, 7647, 7648, 7649
1289, 2390, 2389,  771,  772, 7648, 7650, 7651, 7652
1290,  773,  774, 2391, 2392, 7653, 7654, 7655, 7656
1291, 2392, 2391,  770,  769, 7655, 7657, 7645, 7658
1292,    2,  775,  776,    3, 7659, 7660, 7661, 4164
1293,  436,  777,  775,    2, 7662, 7663, 7659, 7664
1294,  435,  778,  777,  436, 7665, 7666, 7662, 6301
1295,  437, 2393, 1851,  444, 7667, 7668, 6330, 6337
1296, 2393,  778,  435, 1851, 7669, 7665, 6334, 7668
1297,  778, 2393, 2394,  779, 7669, 7670, 7671, 7672
1298, 2393,  437,  440, 2394, 7667, 6306, 7673, 7670
1299,  779, 2394, 2395,  780, 7671, 7674, 7675, 7676
1300, 2394,  440,  447, 2395, 7673, 6340, 7677, 7674
1301,  451, 2396, 2395,  447, 7678, 7679, 7677, 6370
1302, 2396,  781,  780, 2395, 7680, 7681, 7675, 7679
1303,  781, 2396, 3612, 2398, 7680, 7682, 7683, 7684
1304, 2396,  451, 1866, 3612, 7678, 6386, 7685, 7682
1305, 2398, 3612, 2397,  782, 7683, 7686, 7687, 7688
1306, 3612, 1866,  454, 2397, 7685, 6389, 7689, 7686
1307,  458, 2399, 2397,  454, 7690, 7691, 7689, 6397
1308, 2399,  783,  782, 2397, 7692, 7693, 7687, 7691
1309,  783, 2399, 3613, 2401, 7692, 7694, 7695, 7696
1310, 2399,  458, 1872, 3613, 7690, 6407, 7697, 7694
1311, 2401, 3613, 2400,  784, 7695, 7698, 7699, 7700
1312, 3613, 1872,  462, 2400, 7697, 6410, 7701, 7698
1313,  784, 2400, 2402,  785, 7699, 7702, 7703, 7704
1314, 2400,  462,  466, 2402, 7701, 6416, 7705, 7702
1315,  785, 2402, 3614, 2404, 7703, 7706, 7707, 7708
1316, 2402,  466, 1876, 3614, 7705, 6425, 7709, 7706
1317, 2404, 3614, 2403,  786, 7707, 7710, 7711, 7712
1318, 3614, 1876,  470, 2403, 7709, 6428, 7713, 7710
1319,  786, 2403, 2405,  787, 7711, 7714, 7715, 7716
1320, 2403,  470,  474, 2405, 7713, 6434, 7717, 7714
1321,  787, 2405, 3615, 2407, 7715, 7718, 7719, 7720
1322, 2405,  474, 1880, 3615, 7717, 6443, 7721, 7718
1323, 2407, 3615, 2406,  788, 7719, 7722, 7723, 7724
1324, 3615, 1880,  478, 2406, 7721, 6446, 7725, 7722
1325,  788, 2406, 2408,  789, 7723, 7726, 7727, 7728
1326, 2406,  478,  482, 2408, 7725, 6452, 7729, 7726
1327,  789, 2408, 3616, 2410, 7727, 7730, 7731, 7732
1328, 2408,  482, 1882, 3616, 7729, 6458, 7733, 7730
1329, 2410, 3616, 2409,  790, 7731, 7734, 7735, 7736
1330, 3616, 1882,  486, 2409, 7733, 6461, 7737, 7734
1331,  790, 2409, 2411,  291, 7735, 7738, 7739, 7740
1332, 2409,  486,  490, 2411, 7737, 6467, 7741, 7738
1333,  291, 2411, 3617, 1635, 7739, 7742, 7743, 5776
1334, 2411,  490, 1884, 3617, 7741, 6473, 7744, 7742
1335, 1635, 3617, 2412,  289, 7743, 7745, 7746, 5773
1336, 3617, 1884,  494, 2412, 7744, 6476, 7747, 7745
1337,  289, 2412, 2413,  288, 7746, 7748, 7749, 7750
1338, 2412,  494,  498, 2413, 7747, 6482, 7751, 7748
1339,  288, 2413, 3618, 1632, 7749, 7752, 7753, 5765
1340, 2413,  498, 1886, 3618, 7751, 6488, 7754, 7752
1341, 1632, 3618, 2414,  286, 7753, 7755, 7756, 5768
1342, 3618, 1886,  502, 2414, 7754, 6491, 7757, 7755
1343,  286, 2414, 2415,  282, 7756, 7758, 7759, 5762
1344, 2414,  502,  506, 2415, 7757, 6497, 7760, 7758
1345,  282, 2415, 3619, 1624, 7759, 7761, 7762, 5746
1346, 2415,  506, 1896, 3619, 7760, 6506, 7763, 7761
1347, 1624, 3619, 3620, 1625, 7762, 7764, 7765, 5749
1348, 3619, 1896, 1895, 3620, 7763, 6509, 7766, 7764
1349, 1625, 3620, 3621, 1626, 7765, 7767, 7768, 5752
1350, 3620, 1895, 1894, 3621, 7766, 6512, 7769, 7767
1351, 1626, 3621, 3622, 1627, 7768, 7770, 7771, 5755
1352, 3621, 1894, 1893, 3622, 7769, 6515, 7772, 7770
1353, 1627, 3622, 2416,  283, 7771, 7773, 7774, 5758
1354, 3622, 1893,  510, 2416, 7772, 6518, 7775, 7773
1355,  514, 2417, 3623, 1897, 7776, 7777, 7778, 6523
1356, 2417,  791, 2418, 3623, 7779, 7780, 7781, 7777
1357, 1897, 3623, 3624, 1898, 7778, 7782, 7783, 6526
1358, 3623, 2418, 2419, 3624, 7781, 7784, 7785, 7782
1359, 1898, 3624, 3625, 1899, 7783, 7786, 7787, 6529
1360, 3624, 2419, 2420, 3625, 7785, 7788, 7789, 7786
1361, 1899, 3625, 3626, 1900, 7787, 7790, 7791, 6532
1362, 3625, 2420, 2421, 3626, 7789, 7792, 7793, 7790
1363, 1900, 3626, 2416,  510, 7791, 7794, 7775, 6535
1364, 3626, 2421,  283, 2416, 7793, 7795, 7774, 7794
1365,  791, 2417, 2422,  792, 7779, 7796, 7797, 7798
1366, 2417,  514,  518, 2422, 7776, 6608, 7799, 7796
1367,  522, 2423, 3627, 1951, 7800, 7801, 7802, 6616
1368, 2423,  793, 2424, 3627, 7803, 7804, 7805, 7801
1369, 1951, 3627, 2422,  518, 7802, 7806, 7799, 6619
1370, 3627, 2424,  792, 2422, 7805, 7807, 7797, 7806
1371,  526, 2425, 2423,  522, 7808, 7809, 7800, 6625
1372, 2425,  794,  793, 2423, 7810, 7811, 7803, 7809
1373,  794, 2425, 3628, 2427, 7810, 7812, 7813, 7814
1374, 2425,  526, 1956, 3628, 7808, 6635, 7815, 7812
1375, 2427, 3628, 2426,  795, 7813, 7816, 7817, 7818
1376, 3628, 1956,  530, 2426, 7815, 6638, 7819, 7816
1377,  795, 2426, 2428,  796, 7817, 7820, 7821, 7822
1378, 2426,  530,  534, 2428, 7819, 6644, 7823, 7820
1379,  538, 2429, 3629, 1959, 7824, 7825, 7826, 6652
1380, 2429,  797, 2430, 3629, 7827, 7828, 7829, 7825
1381, 1959, 3629, 2428,  534, 7826, 7830, 7823, 6655
1382, 3629, 2430,  796, 2428, 7829, 7831, 7821, 7830
1383,  797, 2429, 2431,  798, 7827, 7832, 7833, 7834
1384, 2429,  538,  542, 2431, 7824, 6662, 7835, 7832
1385,  798, 2431, 3630, 2433, 7833, 7836, 7837, 7838
1386, 2431,  542, 1964, 3630, 7835, 6671, 7839, 7836
1387, 2433, 3630, 2432,  799, 7837, 7840, 7841, 7842
1388, 3630, 1964,  546, 2432, 7839, 6674, 7843, 7840
1389,  550, 2434, 2432,  546, 7844, 7845, 7843, 6679
1390, 2434,  800,  799, 2432, 7846, 7847, 7841, 7845
1391,  554, 2435, 3631, 1967, 7848, 7849, 7850, 6688
1392, 2435,  801, 2436, 3631, 7851, 7852, 7853, 7849
1393, 1967, 3631, 3632, 1968, 7850, 7854, 7855, 6691
1394, 3631, 2436, 2437, 3632, 7853, 7856, 7857, 7854
1395, 1968, 3632, 3633, 1969, 7855, 7858, 7859, 6694
1396, 3632, 2437, 2438, 3633, 7857, 7860, 7861, 7858
1397, 1969, 3633, 3634, 1970, 7859, 7862, 7863, 6697
1398, 3633, 2438, 2439, 3634, 7861, 7864, 7865, 7862
1399, 1970, 3634, 3635, 1971, 7863, 7866, 7867, 6700
1400, 3634, 2439, 2440, 3635, 7865, 7868, 7869, 7866
1401, 1971, 3635, 3636, 1972, 7867, 7870, 7871, 6703
1402, 3635, 2440, 2441, 3636, 7869, 7872, 7873, 7870
1403, 1972, 3636, 3637, 1973, 7871, 7874, 7875, 6706
1404, 3636, 2441, 2442, 3637, 7873, 7876, 7877, 7874
1405, 1973, 3637, 3638, 1974, 7875, 7878, 7879, 6709
1406, 3637, 2442, 2443, 3638, 7877, 7880, 7881, 7878
1407, 1974, 3638, 3639, 1975, 7879, 7882, 7883, 6712
1408, 3638, 2443, 2444, 3639, 7881, 7884, 7885, 7882
1409, 1975, 3639, 2434,  550, 7883, 7886, 7844, 6715
1410, 3639, 2444,  800, 2434, 7885, 7887, 7846, 7886
1411,  558, 2445, 2435,  554, 7888, 7889, 7848, 6721
1412, 2445,  802,  801, 2435, 7890, 7891, 7851, 7889
1413,  562, 2446, 3640, 1987, 7892, 7893, 7894, 6730
1414, 2446,  803, 2447, 3640, 7895, 7896, 7897, 7893
1415, 1987, 3640, 2445,  558, 7894, 7898, 7888, 6733
1416, 3640, 2447,  802, 2445, 7897, 7899, 7890, 7898
1417,  566, 2448, 2446,  562, 7900, 7901, 7892, 6739
1418, 2448,  804,  803, 2446, 7902, 7903, 7895, 7901
1419,  570, 2449, 2448,  566, 7904, 7905, 7900, 6748
1420, 2449,  805,  804, 2448, 7906, 7907, 7902, 7905
1421,  574, 2450, 2449,  570, 7908, 7909, 7904, 6754
1422, 2450,  806,  805, 2449, 7910, 7911, 7906, 7909
1423,  806, 2450, 2451,  807, 7910, 7912, 7913, 7914
1424, 2450,  574,  578, 2451, 7908, 6764, 7915, 7912
1425,  807, 2451, 2452,  808, 7913, 7916, 7917, 7918
1426, 2451,  578,  582, 2452, 7915, 6770, 7919, 7916
1427,  586, 2453, 2452,  582, 7920, 7921, 7919, 6778
1428, 2453,  809,  808, 2452, 7922, 7923, 7917, 7921
1429,  809, 2453, 2454,  810, 7922, 7924, 7925, 7926
1430, 2453,  586,  590, 2454, 7920, 6788, 7927, 7924
1431,  810, 2454, 3641, 2455, 7925, 7928, 7929, 7930
1432, 2454,  590, 2008, 3641, 7927, 6809, 7931, 7928
1433, 2455, 3641, 2011,  602, 7929, 7932, 6826, 7933
1434, 3641, 2008,  594, 2011, 7931, 6812, 6829, 7932
1435,  606, 2456, 2455,  602, 7934, 7935, 7933, 6835
1436, 2456,  811,  810, 2455, 7936, 7937, 7930, 7935
1437,  811, 2456, 2457,  812, 7936, 7938, 7939, 7940
1438, 2456,  606,  610, 2457, 7934, 6842, 7941, 7938
1439,  812, 2457, 2458,  813, 7939, 7942, 7943, 7944
1440, 2457,  610,  614, 2458, 7941, 6848, 7945, 7942
1441,  813, 2458, 2459,  814, 7943, 7946, 7947, 7948
1442, 2458,  614,  618, 2459, 7945, 6857, 7949, 7946
1443,  622, 2460, 2459,  618, 7950, 7951, 7949, 6862
1444, 2460,  815,  814, 2459, 7952, 7953, 7947, 7951
1445,  815, 2460, 2461,  816, 7952, 7954, 7955, 7956
1446, 2460,  622,  626, 2461, 7950, 6872, 7957, 7954
1447,  816, 2461, 2462,  817, 7955, 7958, 7959, 7960
1448, 2461,  626,  630, 2462, 7957, 6878, 7961, 7958
1449,  634, 2463, 3642, 2019, 7962, 7963, 7964, 6886
1450, 2463,  818, 2464, 3642, 7965, 7966, 7967, 7963
1451, 2019, 3642, 2462,  630, 7964, 7968, 7961, 6889
1452, 3642, 2464,  817, 2462, 7967, 7969, 7959, 7968
1453,  819,  820, 2465, 2474, 7970, 7971, 7972, 7973
1454, 2474, 2465, 2466, 2473, 7972, 7974, 7975, 7976
1455, 2473, 2466, 2467, 2472, 7975, 7977, 7978, 7979
1456, 2472, 2467, 2468, 2471, 7978, 7980, 7981, 7982
1457, 2471, 2468, 2469, 2470, 7981, 7983, 7984, 7985
1458, 2470, 2469,    1,    4, 7984, 7986, 4162, 7987
1459,  638, 2475, 2463,  634, 7988, 7989, 7962, 6895
1460, 2475,  821,  818, 2463, 7990, 7991, 7965, 7989
1461,  822, 2476, 2477,  823, 7992, 7993, 7994, 7995
1462, 2476,  820,  819, 2477, 7996, 7970, 7997, 7993
1463,  820,  442, 1849, 2465, 7998, 6309, 7999, 7971
1464, 2465, 1849, 1848, 2466, 7999, 6313, 8000, 7974
1465, 2466, 1848, 1847, 2467, 8000, 6316, 8001, 7977
1466, 2467, 1847, 1846, 2468, 8001, 6319, 8002, 7980
1467, 2468, 1846, 1845, 2469, 8002, 6322, 8003, 7983
1468, 2469, 1845,  433,    1, 8003, 6324, 8004, 7986
1469,  642, 2478, 3643, 2023, 8005, 8006, 8007, 6904
1470, 2478,  824, 2479, 3643, 8008, 8009, 8010, 8006
1471, 2023, 3643, 3644, 2024, 8007, 8011, 8012, 6907
1472, 3643, 2479, 2480, 3644, 8010, 8013, 8014, 8011
1473, 2024, 3644, 3645, 2025, 8012, 8015, 8016, 6910
1474, 3644, 2480, 2481, 3645, 8014, 8017, 8018, 8015
1475, 2025, 3645, 3646, 2026, 8016, 8019, 8020, 6913
1476, 3645, 2481, 2482, 3646, 8018, 8021, 8022, 8019
1477, 2026, 3646, 3647, 2027, 8020, 8023, 8024, 6916
1478, 3646, 2482, 2483, 3647, 8022, 8025, 8026, 8023
1479, 2027, 3647, 3648, 2028, 8024, 8027, 8028, 6919
1480, 3647, 2483, 2484, 3648, 8026, 8029, 8030, 8027
1481, 2028, 3648, 3649, 2029, 8028, 8031, 8032, 6922
1482, 3648, 2484, 2485, 3649, 8030, 8033, 8034, 8031
1483, 2029, 3649, 3650, 2030, 8032, 8035, 8036, 6925
1484, 3649, 2485, 2486, 3650, 8034, 8037, 8038, 8035
1485, 2030, 3650, 3651, 2031, 8036, 8039, 8040, 6928
1486, 3650, 2486, 2487, 3651, 8038, 8041, 8042, 8039
1487, 2031, 3651, 3652, 2032, 8040, 8043, 8044, 6931
1488, 3651, 2487, 2488, 3652, 8042, 8045, 8046, 8043
1489, 2032, 3652, 3653, 2033, 8044, 8047, 8048, 6934
1490, 3652, 2488, 2489, 3653, 8046, 8049, 8050, 8047
1491, 2033, 3653, 3654, 2034, 8048, 8051, 8052, 6937
1492, 3653, 2489, 2490, 3654, 8050, 8053, 8054, 8051
1493, 2034, 3654, 3655, 2035, 8052, 8055, 8056, 6940
1494, 3654, 2490, 2491, 3655, 8054, 8057, 8058, 8055
1495, 2035, 3655, 3656, 2036, 8056, 8059, 8060, 6943
1496, 3655, 2491, 2492, 3656, 8058, 8061, 8062, 8059
1497, 2036, 3656, 3657, 2037, 8060, 8063, 8064, 6946
1498, 3656, 2492, 2493, 3657, 8062, 8065, 8066, 8063
1499, 2037, 3657, 2475,  638, 8064, 8067, 7988, 6949
1500, 3657, 2493,  821, 2475, 8066, 8068, 7990, 8067
1501,  825, 2494, 2476,  822, 8069, 8070, 7992, 8071
1502, 2494,  442,  820, 2476, 8072, 7998, 7996, 8070
1503,  824, 2478, 3658, 2499, 8008, 8073, 8074, 8075
1504, 2478,  642, 2060, 3658, 8005, 6956, 8076, 8073
1505, 2499, 3658, 3659, 2498, 8074, 8077, 8078, 8079
1506, 3658, 2060, 2059, 3659, 8076, 6959, 8080, 8077
1507, 2498, 3659, 3660, 2497, 8078, 8081, 8082, 8083
1508, 3659, 2059, 2058, 3660, 8080, 6962, 8084, 8081
1509, 2497, 3660, 3661, 2496, 8082, 8085, 8086, 8087
1510, 3660, 2058, 2057, 3661, 8084, 6965, 8088, 8085
1511, 2496, 3661, 2495,  826, 8086, 8089, 8090, 8091
1512, 3661, 2057,  646, 2495, 8088, 6968, 8092, 8089
1513,  827, 2500, 2494,  825, 8093, 8094, 8069, 8095
1514, 2500,  441,  442, 2494, 8096, 6310, 8072, 8094
1515,  826, 2495, 3662, 2524, 8090, 8097, 8098, 8099
1516, 2495,  646, 2108, 3662, 8092, 6977, 8100, 8097
1517, 2524, 3662, 3663, 2523, 8098, 8101, 8102, 8103
1518, 3662, 2108, 2107, 3663, 8100, 6980, 8104, 8101
1519, 2523, 3663, 3664, 2522, 8102, 8105, 8106, 8107
1520, 3663, 2107, 2106, 3664, 8104, 6983, 8108, 8105
1521, 2522, 3664, 3665, 2521, 8106, 8109, 8110, 8111
1522, 3664, 2106, 2105, 3665, 8108, 6986, 8112, 8109
1523, 2521, 3665, 3666, 2520, 8110, 8113, 8114, 8115
1524, 3665, 2105, 2104, 3666, 8112, 6989, 8116, 8113
1525, 2520, 3666, 3667, 2519, 8114, 8117, 8118, 8119
1526, 3666, 2104, 2103, 3667, 8116, 6992, 8120, 8117
1527, 2519, 3667, 3668, 2518, 8118, 8121, 8122, 8123
1528, 3667, 2103, 2102, 3668, 8120, 6995, 8124, 8121
1529, 2518, 3668, 3669, 2517, 8122, 8125, 8126, 8127
1530, 3668, 2102, 2101, 3669, 8124, 6998, 8128, 8125
1531, 2517, 3669, 3670, 2516, 8126, 8129, 8130, 8131
1532, 3669, 2101, 2100, 3670, 8128, 7001, 8132, 8129
1533, 2516, 3670, 3671, 2515, 8130, 8133, 8134, 8135
1534, 3670, 2100, 2099, 3671, 8132, 7004, 8136, 8133
1535, 2515, 3671, 3672, 2514, 8134, 8137, 8138, 8139
1536, 3671, 2099, 2098, 3672, 8136, 7007, 8140, 8137
1537, 2514, 3672, 3673, 2513, 8138, 8141, 8142, 8143
1538, 3672, 2098, 2097, 3673, 8140, 7010, 8144, 8141
1539, 2513, 3673, 3674, 2512, 8142, 8145, 8146, 8147
1540, 3673, 2097, 2096, 3674, 8144, 7013, 8148, 8145
1541, 2512, 3674, 3675, 2511, 8146, 8149, 8150, 8151
1542, 3674, 2096, 2095, 3675, 8148, 7016, 8152, 8149
1543, 2511, 3675, 3676, 2510, 8150, 8153, 8154, 8155
1544, 3675, 2095, 2094, 3676, 8152, 7019, 8156, 8153
1545, 2510, 3676, 3677, 2509, 8154, 8157, 8158, 8159
1546, 3676, 2094, 2093, 3677, 8156, 7022, 8160, 8157
1547, 2509, 3677, 3678, 2508, 8158, 8161, 8162, 8163
1548, 3677, 2093, 2092, 3678, 8160, 7025, 8164, 8161
1549, 2508, 3678, 3679, 2507, 8162, 8165, 8166, 8167
1550, 3678, 2092, 2091, 3679, 8164, 7028, 8168, 8165
1551, 2507, 3679, 3680, 2506, 8166, 8169, 8170, 8171
1552, 3679, 2091, 2090, 3680, 8168, 7031, 8172, 8169
1553, 2506, 3680, 3681, 2505, 8170, 8173, 8174, 8175
1554, 3680, 2090, 2089, 3681, 8172, 7034, 8176, 8173
1555, 2505, 3681, 3682, 2504, 8174, 8177, 8178, 8179
1556, 3681, 2089, 2088, 3682, 8176, 7037, 8180, 8177
1557, 2504, 3682, 3683, 2503, 8178, 8181, 8182, 8183
1558, 3682, 2088, 2087, 3683, 8180, 7040, 8184, 8181
1559, 2503, 3683, 3684, 2502, 8182, 8185, 8186, 8187
1560, 3683, 2087, 2086, 3684, 8184, 7043, 8188, 8185
1561, 2502, 3684, 2501,  828, 8186, 8189, 8190, 8191
1562, 3684, 2086,  650, 2501, 8188, 7046, 8192, 8189
1563,  827, 2525, 3685, 2500, 8193, 8194, 8195, 8093
1564, 2525,  455, 1868, 3685, 8196, 6393, 8197, 8194
1565, 2500, 3685, 1858,  441, 8195, 8198, 6360, 8096
1566, 3685, 1868,  448, 1858, 8197, 6395, 6344, 8198
1567,  654, 2526, 3686, 2109, 8199, 8200, 8201, 7051
1568, 2526,  829, 2527, 3686, 8202, 8203, 8204, 8200
1569, 2109, 3686, 2501,  650, 8201, 8205, 8192, 7054
1570, 3686, 2527,  828, 2501, 8204, 8206, 8190, 8205
1571,  830, 2528, 3687, 2529, 8207, 8208, 8209, 8210
1572, 2528,  459, 1870, 3687, 8211, 6402, 8212, 8208
1573, 2529, 3687, 2525,  827, 8209, 8213, 8193, 8214
1574, 3687, 1870,  455, 2525, 8212, 6404, 8196, 8213
1575,  658, 2530, 2526,  654, 8215, 8216, 8199, 7063
1576, 2530,  831,  829, 2526, 8217, 8218, 8202, 8216
1577,  832, 2531, 2528,  830, 8219, 8220, 8207, 8221
1578, 2531,  463,  459, 2528, 8222, 6413, 8211, 8220
1579,  670, 2532, 3688, 2118, 8223, 8224, 8225, 7091
1580, 2532,  831, 2530, 3688, 8226, 8217, 8227, 8224
1581, 2118, 3688, 2113,  662, 8225, 8228, 7069, 7088
1582, 3688, 2530,  658, 2113, 8227, 8215, 7072, 8228
1583,  463, 2531, 3689, 1873, 8222, 8229, 8230, 6417
1584, 2531,  832, 2533, 3689, 8219, 8231, 8232, 8229
1585, 1873, 3689, 1878,  467, 8230, 8233, 6440, 6420
1586, 3689, 2533,  475, 1878, 8232, 8234, 6438, 8233
1587,  831, 2532, 2534,  833, 8226, 8235, 8236, 8237
1588, 2532,  670,  674, 2534, 8223, 7100, 8238, 8235
1589,  475, 2533, 2535,  479, 8234, 8239, 8240, 6447
1590, 2533,  832,  834, 2535, 8231, 8241, 8242, 8239
1591,  833, 2534, 2536,  835, 8236, 8243, 8244, 8245
1592, 2534,  674,  678, 2536, 8238, 7106, 8246, 8243
1593,  479, 2535, 2537,  483, 8240, 8247, 8248, 6453
1594, 2535,  834,  836, 2537, 8242, 8249, 8250, 8247
1595,  835, 2536, 2538,  837, 8244, 8251, 8252, 8253
1596, 2536,  678,  682, 2538, 8246, 7115, 8254, 8251
1597,  838, 2539, 2537,  836, 8255, 8256, 8250, 8257
1598, 2539,  487,  483, 2537, 8258, 6464, 8248, 8256
1599,  686, 2540, 2538,  682, 8259, 8260, 8254, 7120
1600, 2540,  839,  837, 2538, 8261, 8262, 8252, 8260
1601,  487, 2539, 2541,  491, 8258, 8263, 8264, 6468
1602, 2539,  838,  840, 2541, 8255, 8265, 8266, 8263
1603,  839, 2540, 2542,  841, 8261, 8267, 8268, 8269
1604, 2540,  686,  690, 2542, 8259, 7130, 8270, 8267
1605,  491, 2541, 2543,  495, 8264, 8271, 8272, 6477
1606, 2541,  840,  842, 2543, 8266, 8273, 8274, 8271
1607,  841, 2542, 2544,  843, 8268, 8275, 8276, 8277
1608, 2542,  690,  694, 2544, 8270, 7136, 8278, 8275
1609,  495, 2543, 2545,  499, 8272, 8279, 8280, 6483
1610, 2543,  842,  844, 2545, 8274, 8281, 8282, 8279
1611,  843, 2544, 2546,  845, 8276, 8283, 8284, 8285
1612, 2544,  694,  698, 2546, 8278, 7145, 8286, 8283
1613,  846, 2547, 2545,  844, 8287, 8288, 8282, 8289
1614, 2547,  503,  499, 2545, 8290, 6494, 8280, 8288
1615,  587, 2548, 3690, 1997, 8291, 8292, 8293, 6789
1616, 2548,  299, 1649, 3690, 8294, 5795, 8295, 8292
1617, 1997, 3690, 3691, 1998, 8293, 8296, 8297, 6792
1618, 3690, 1649, 1648, 3691, 8295, 5798, 8298, 8296
1619, 1998, 3691, 3692, 1999, 8297, 8299, 8300, 6795
1620, 3691, 1648, 1647, 3692, 8298, 5801, 8301, 8299
1621, 1999, 3692, 3693, 2000, 8300, 8302, 8303, 6798
1622, 3692, 1647, 1646, 3693, 8301, 5804, 8304, 8302
1623, 2000, 3693, 3694, 2001, 8303, 8305, 8306, 6801
1624, 3693, 1646, 1645, 3694, 8304, 5807, 8307, 8305
1625, 2001, 3694, 2549,  591, 8306, 8308, 8309, 6804
1626, 3694, 1645,  301, 2549, 8307, 5810, 8310, 8308
1627,  845, 2546, 3695, 2550, 8284, 8311, 8312, 8313
1628, 2546,  698, 2128, 3695, 8286, 7151, 8314, 8311
1629, 2550, 3695, 2131,  710, 8312, 8315, 7168, 8316
1630, 3695, 2128,  702, 2131, 8314, 7154, 7171, 8315
1631,  591, 2549, 3696, 2009, 8309, 8317, 8318, 6813
1632, 2549,  301, 1651, 3696, 8310, 5813, 8319, 8317
1633, 2009, 3696, 2551,  595, 8318, 8320, 8321, 6816
1634, 3696, 1651,  303, 2551, 8319, 5816, 8322, 8320
1635,  503, 2547, 3697, 1887, 8290, 8323, 8324, 6498
1636, 2547,  846, 2552, 3697, 8287, 8325, 8326, 8323
1637, 1887, 3697, 2553,  507, 8324, 8327, 8328, 6501
1638, 3697, 2552,  847, 2553, 8326, 8329, 8330, 8327
1639,  583, 2554, 3698, 1995, 8331, 8332, 8333, 6780
1640, 2554,  297, 1639, 3698, 8334, 5789, 8335, 8332
1641, 1995, 3698, 2548,  587, 8333, 8336, 8291, 6783
1642, 3698, 1639,  299, 2548, 8335, 5792, 8294, 8336
1643,  714, 2555, 2550,  710, 8337, 8338, 8316, 7180
1644, 2555,  848,  845, 2550, 8339, 8340, 8313, 8338
1645,  595, 2551, 2556,  599, 8321, 8341, 8342, 6822
1646, 2551,  303,  305, 2556, 8322, 5819, 8343, 8341
1647,  849, 2557, 2553,  847, 8344, 8345, 8330, 8346
1648, 2557,  511,  507, 2553, 8347, 6521, 8328, 8345
1649,  297, 2554, 3699, 1636, 8334, 8348, 8349, 5782
1650, 2554,  583, 1993, 3699, 8331, 6774, 8350, 8348
1651, 1636, 3699, 2558,  293, 8349, 8351, 8352, 5785
1652, 3699, 1993,  579, 2558, 8350, 6771, 8353, 8351
1653,  718, 2559, 3700, 2135, 8354, 8355, 8356, 7186
1654, 2559,  850, 2560, 3700, 8357, 8358, 8359, 8355
1655, 2135, 3700, 2555,  714, 8356, 8360, 8337, 7189
1656, 3700, 2560,  848, 2555, 8359, 8361, 8339, 8360
1657,  599, 2556, 2561,  603, 8342, 8362, 8363, 6831
1658, 2556,  305,  307, 2561, 8343, 5822, 8364, 8362
1659,  851, 2562, 3701, 2584, 8365, 8366, 8367, 8368
1660, 2562,  515, 1948, 3701, 8369, 6540, 8370, 8366
1661, 2584, 3701, 3702, 2583, 8367, 8371, 8372, 8373
1662, 3701, 1948, 1947, 3702, 8370, 6543, 8374, 8371
1663, 2583, 3702, 3703, 2582, 8372, 8375, 8376, 8377
1664, 3702, 1947, 1946, 3703, 8374, 6546, 8378, 8375
1665, 2582, 3703, 3704, 2581, 8376, 8379, 8380, 8381
1666, 3703, 1946, 1945, 3704, 8378, 6549, 8382, 8379
1667, 2581, 3704, 3705, 2580, 8380, 8383, 8384, 8385
1668, 3704, 1945, 1944, 3705, 8382, 6552, 8386, 8383
1669, 2580, 3705, 3706, 2579, 8384, 8387, 8388, 8389
1670, 3705, 1944, 1943, 3706, 8386, 6555, 8390, 8387
1671, 2579, 3706, 3707, 2578, 8388, 8391, 8392, 8393
1672, 3706, 1943, 1942, 3707, 8390, 6558, 8394, 8391
1673, 2578, 3707, 3708, 2577, 8392, 8395, 8396, 8397
1674, 3707, 1942, 1941, 3708, 8394, 6561, 8398, 8395
1675, 2577, 3708, 3709, 2576, 8396, 8399, 8400, 8401
1676, 3708, 1941, 1940, 3709, 8398, 6564, 8402, 8399
1677, 2576, 3709, 3710, 2575, 8400, 8403, 8404, 8405
1678, 3709, 1940, 1939, 3710, 8402, 6567, 8406, 8403
1679, 2575, 3710, 3711, 2574, 8404, 8407, 8408, 8409
1680, 3710, 1939, 1938, 3711, 8406, 6570, 8410, 8407
1681, 2574, 3711, 3712, 2573, 8408, 8411, 8412, 8413
1682, 3711, 1938, 1937, 3712, 8410, 6573, 8414, 8411
1683, 2573, 3712, 3713, 2572, 8412, 8415, 8416, 8417
1684, 3712, 1937, 1936, 3713, 8414, 6576, 8418, 8415
1685, 2572, 3713, 3714, 2571, 8416, 8419, 8420, 8421
1686, 3713, 1936, 1935, 3714, 8418, 6579, 8422, 8419
1687, 2571, 3714, 3715, 2570, 8420, 8423, 8424, 8425
1688, 3714, 1935, 1934, 3715, 8422, 6582, 8426, 8423
1689, 2570, 3715, 3716, 2569, 8424, 8427, 8428, 8429
1690, 3715, 1934, 1933, 3716, 8426, 6585, 8430, 8427
1691, 2569, 3716, 3717, 2568, 8428, 8431, 8432, 8433
1692, 3716, 1933, 1932, 3717, 8430, 6588, 8434, 8431
1693, 2568, 3717, 3718, 2567, 8432, 8435, 8436, 8437
1694, 3717, 1932, 1931, 3718, 8434, 6591, 8438, 8435
1695, 2567, 3718, 3719, 2566, 8436, 8439, 8440, 8441
1696, 3718, 1931, 1930, 3719, 8438, 6594, 8442, 8439
1697, 2566, 3719, 3720, 2565, 8440, 8443, 8444, 8445
1698, 3719, 1930, 1929, 3720, 8442, 6597, 8446, 8443
1699, 2565, 3720, 3721, 2564, 8444, 8447, 8448, 8449
1700, 3720, 1929, 1928, 3721, 8446, 6600, 8450, 8447
1701, 2564, 3721, 3722, 2563, 8448, 8451, 8452, 8453
1702, 3721, 1928, 1927, 3722, 8450, 6603, 8454, 8451
1703, 2563, 3722, 2557,  849, 8452, 8455, 8344, 8456
1704, 3722, 1927,  511, 2557, 8454, 6605, 8347, 8455
1705,  293, 2558, 2585,  294, 8352, 8457, 8458, 5778
1706, 2558,  579,  575, 2585, 8353, 6767, 8459, 8457
1707,  850, 2559, 3723, 2609, 8357, 8460, 8461, 8462
1708, 2559,  718, 2184, 3723, 8354, 7199, 8463, 8460
1709, 2609, 3723, 3724, 2608, 8461, 8464, 8465, 8466
1710, 3723, 2184, 2183, 3724, 8463, 7202, 8467, 8464
1711, 2608, 3724, 3725, 2607, 8465, 8468, 8469, 8470
1712, 3724, 2183, 2182, 3725, 8467, 7205, 8471, 8468
1713, 2607, 3725, 3726, 2606, 8469, 8472, 8473, 8474
1714, 3725, 2182, 2181, 3726, 8471, 7208, 8475, 8472
1715, 2606, 3726, 3727, 2605, 8473, 8476, 8477, 8478
1716, 3726, 2181, 2180, 3727, 8475, 7211, 8479, 8476
1717, 2605, 3727, 3728, 2604, 8477, 8480, 8481, 8482
1718, 3727, 2180, 2179, 3728, 8479, 7214, 8483, 8480
1719, 2604, 3728, 3729, 2603, 8481, 8484, 8485, 8486
1720, 3728, 2179, 2178, 3729, 8483, 7217, 8487, 8484
1721, 2603, 3729, 3730, 2602, 8485, 8488, 8489, 8490
1722, 3729, 2178, 2177, 3730, 8487, 7220, 8491, 8488
1723, 2602, 3730, 3731, 2601, 8489, 8492, 8493, 8494
1724, 3730, 2177, 2176, 3731, 8491, 7223, 8495, 8492
1725, 2601, 3731, 3732, 2600, 8493, 8496, 8497, 8498
1726, 3731, 2176, 2175, 3732, 8495, 7226, 8499, 8496
1727, 2600, 3732, 3733, 2599, 8497, 8500, 8501, 8502
1728, 3732, 2175, 2174, 3733, 8499, 7229, 8503, 8500
1729, 2599, 3733, 3734, 2598, 8501, 8504, 8505, 8506
1730, 3733, 2174, 2173, 3734, 8503, 7232, 8507, 8504
1731, 2598, 3734, 3735, 2597, 8505, 8508, 8509, 8510
1732, 3734, 2173, 2172, 3735, 8507, 7235, 8511, 8508
1733, 2597, 3735, 3736, 2596, 8509, 8512, 8513, 8514
1734, 3735, 2172, 2171, 3736, 8511, 7238, 8515, 8512
1735, 2596, 3736, 3737, 2595, 8513, 8516, 8517, 8518
1736, 3736, 2171, 2170, 3737, 8515, 7241, 8519, 8516
1737, 2595, 3737, 3738, 2594, 8517, 8520, 8521, 8522
1738, 3737, 2170, 2169, 3738, 8519, 7244, 8523, 8520
1739, 2594, 3738, 3739, 2593, 8521, 8524, 8525, 8526
1740, 3738, 2169, 2168, 3739, 8523, 7247, 8527, 8524
1741, 2593, 3739, 3740, 2592, 8525, 8528, 8529, 8530
1742, 3739, 2168, 2167, 3740, 8527, 7250, 8531, 8528
1743, 2592, 3740, 3741, 2591, 8529, 8532, 8533, 8534
1744, 3740, 2167, 2166, 3741, 8531, 7253, 8535, 8532
1745, 2591, 3741, 3742, 2590, 8533, 8536, 8537, 8538
1746, 3741, 2166, 2165, 3742, 8535, 7256, 8539, 8536
1747, 2590, 3742, 3743, 2589, 8537, 8540, 8541, 8542
1748, 3742, 2165, 2164, 3743, 8539, 7259, 8543, 8540
1749, 2589, 3743, 3744, 2588, 8541, 8544, 8545, 8546
1750, 3743, 2164, 2163, 3744, 8543, 7262, 8547, 8544
1751, 2588, 3744, 3745, 2587, 8545, 8548, 8549, 8550
1752, 3744, 2163, 2162, 3745, 8547, 7265, 8551, 8548
1753, 2587, 3745, 2586,  852, 8549, 8552, 8553, 8554
1754, 3745, 2162,  722, 2586, 8551, 7268, 8555, 8552
1755,  603, 2561, 2610,  607, 8363, 8556, 8557, 6837
1756, 2561,  307,  309, 2610, 8364, 5825, 8558, 8556
1757,  853, 2611, 3746, 2612, 8559, 8560, 8561, 8562
1758, 2611,  519, 1950, 3746, 8563, 6612, 8564, 8560
1759, 2612, 3746, 2562,  851, 8561, 8565, 8365, 8566
1760, 3746, 1950,  515, 2562, 8564, 6614, 8369, 8565
1761,  224, 2613, 3747, 1546, 8567, 8568, 8569, 5544
1762, 2613,  296, 1637, 3747, 8570, 5784, 8571, 8568
1763, 1546, 3747, 2614,  220, 8569, 8572, 8573, 5547
1764, 3747, 1637,  292, 2614, 8571, 5786, 8574, 8572
1765,  563, 2615, 3748, 1990, 8575, 8576, 8577, 6746
1766, 2615,  294, 2585, 3748, 8578, 8458, 8579, 8576
1767, 1990, 3748, 1991,  567, 8577, 8580, 6756, 6744
1768, 3748, 2585,  575, 1991, 8579, 8459, 6759, 8580
1769,  852, 2586, 3749, 2620, 8553, 8581, 8582, 8583
1770, 2586,  722, 2236, 3749, 8555, 7340, 8584, 8581
1771, 2620, 3749, 3750, 2619, 8582, 8585, 8586, 8587
1772, 3749, 2236, 2235, 3750, 8584, 7343, 8588, 8585
1773, 2619, 3750, 3751, 2618, 8586, 8589, 8590, 8591
1774, 3750, 2235, 2234, 3751, 8588, 7346, 8592, 8589
1775, 2618, 3751, 3752, 2617, 8590, 8593, 8594, 8595
1776, 3751, 2234, 2233, 3752, 8592, 7349, 8596, 8593
1777, 2617, 3752, 2616,  854, 8594, 8597, 8598, 8599
1778, 3752, 2233,  726, 2616, 8596, 7352, 8600, 8597
1779,  311, 2621, 2610,  309, 8601, 8602, 8558, 5827
1780, 2621,  611,  607, 2610, 8603, 6845, 8557, 8602
1781,  296, 2613, 3753, 1638, 8570, 8604, 8605, 5787
1782, 2613,  224, 1549, 3753, 8567, 5551, 8606, 8604
1783, 1638, 3753, 2622,  298, 8605, 8607, 8608, 5790
1784, 3753, 1549,  226, 2622, 8606, 5554, 8609, 8607
1785,  855, 2623, 2611,  853, 8610, 8611, 8559, 8612
1786, 2623,  523,  519, 2611, 8613, 6623, 8563, 8611
1787,  220, 2614, 2624,  221, 8573, 8614, 8615, 5540
1788, 2614,  292,  295, 2624, 8574, 5780, 8616, 8614
1789,  294, 2615, 2625,  295, 8578, 8617, 8618, 5779
1790, 2615,  563,  559, 2625, 8575, 6737, 8619, 8617
1791,  854, 2616, 3754, 2641, 8598, 8620, 8621, 8622
1792, 2616,  726, 2266, 3754, 8600, 7358, 8623, 8620
1793, 2641, 3754, 3755, 2640, 8621, 8624, 8625, 8626
1794, 3754, 2266, 2265, 3755, 8623, 7361, 8627, 8624
1795, 2640, 3755, 3756, 2639, 8625, 8628, 8629, 8630
1796, 3755, 2265, 2264, 3756, 8627, 7364, 8631, 8628
1797, 2639, 3756, 3757, 2638, 8629, 8632, 8633, 8634
1798, 3756, 2264, 2263, 3757, 8631, 7367, 8635, 8632
1799, 2638, 3757, 3758, 2637, 8633, 8636, 8637, 8638
1800, 3757, 2263, 2262, 3758, 8635, 7370, 8639, 8636
1801, 2637, 3758, 3759, 2636, 8637, 8640, 8641, 8642
1802, 3758, 2262, 2261, 3759, 8639, 7373, 8643, 8640
1803, 2636, 3759, 3760, 2635, 8641, 8644, 8645, 8646
1804, 3759, 2261, 2260, 3760, 8643, 7376, 8647, 8644
1805, 2635, 3760, 3761, 2634, 8645, 8648, 8649, 8650
1806, 3760, 2260, 2259, 3761, 8647, 7379, 8651, 8648
1807, 2634, 3761, 3762, 2633, 8649, 8652, 8653, 8654
1808, 3761, 2259, 2258, 3762, 8651, 7382, 8655, 8652
1809, 2633, 3762, 3763, 2632, 8653, 8656, 8657, 8658
1810, 3762, 2258, 2257, 3763, 8655, 7385, 8659, 8656
1811, 2632, 3763, 3764, 2631, 8657, 8660, 8661, 8662
1812, 3763, 2257, 2256, 3764, 8659, 7388, 8663, 8660
1813, 2631, 3764, 3765, 2630, 8661, 8664, 8665, 8666
1814, 3764, 2256, 2255, 3765, 8663, 7391, 8667, 8664
1815, 2630, 3765, 3766, 2629, 8665, 8668, 8669, 8670
1816, 3765, 2255, 2254, 3766, 8667, 7394, 8671, 8668
1817, 2629, 3766, 3767, 2628, 8669, 8672, 8673, 8674
1818, 3766, 2254, 2253, 3767, 8671, 7397, 8675, 8672
1819, 2628, 3767, 3768, 2627, 8673, 8676, 8677, 8678
1820, 3767, 2253, 2252, 3768, 8675, 7400, 8679, 8676
1821, 2627, 3768, 2626,  856, 8677, 8680, 8681, 8682
1822, 3768, 2252,  730, 2626, 8679, 7403, 8683, 8680
1823,  313, 2642, 3769, 1652, 8684, 8685, 8686, 5830
1824, 2642,  615, 2014, 3769, 8687, 6852, 8688, 8685
1825, 1652, 3769, 2621,  311, 8686, 8689, 8601, 5833
1826, 3769, 2014,  611, 2621, 8688, 6854, 8603, 8689
1827,  298, 2622, 3770, 1640, 8608, 8690, 8691, 5793
1828, 2622,  226, 1559, 3770, 8609, 5557, 8692, 8690
1829, 1640, 3770, 3771, 1641, 8691, 8693, 8694, 5796
1830, 3770, 1559, 1558, 3771, 8692, 5560, 8695, 8693
1831, 1641, 3771, 3772, 1642, 8694, 8696, 8697, 5799
1832, 3771, 1558, 1557, 3772, 8695, 5563, 8698, 8696
1833, 1642, 3772, 3773, 1643, 8697, 8699, 8700, 5802
1834, 3772, 1557, 1556, 3773, 8698, 5566, 8701, 8699
1835, 1643, 3773, 3774, 1644, 8700, 8702, 8703, 5805
1836, 3773, 1556, 1555, 3774, 8701, 5569, 8704, 8702
1837, 1644, 3774, 2643,  300, 8703, 8705, 8706, 5808
1838, 3774, 1555,  228, 2643, 8704, 5572, 8707, 8705
1839,  857, 2644, 3775, 2645, 8708, 8709, 8710, 8711
1840, 2644,  527, 1954, 3775, 8712, 6630, 8713, 8709
1841, 2645, 3775, 2623,  855, 8710, 8714, 8610, 8715
1842, 3775, 1954,  523, 2623, 8713, 6632, 8613, 8714
1843,  295, 2625, 3776, 2624, 8618, 8716, 8717, 8616
1844, 2625,  559, 1986, 3776, 8619, 6726, 8718, 8716
1845, 2624, 3776, 2646,  221, 8717, 8719, 8720, 8615
1846, 3776, 1986,  555, 2646, 8718, 6728, 8721, 8719
1847,  856, 2626, 2647,  858, 8681, 8722, 8723, 8724
1848, 2626,  730,  734, 2647, 8683, 7421, 8725, 8722
1849,  859,  860, 2648, 2649, 8726, 8727, 8728, 8729
1850, 2649, 2648,  861,  862, 8728, 8730, 8731, 8732
1851,  315, 2650, 2642,  313, 8733, 8734, 8684, 5836
1852, 2650,  619,  615, 2642, 8735, 6860, 8687, 8734
1853,  300, 2643, 3777, 1650, 8706, 8736, 8737, 5811
1854, 2643,  228, 1561, 3777, 8707, 5575, 8738, 8736
1855, 1650, 3777, 2651,  302, 8737, 8739, 8740, 5814
1856, 3777, 1561,  230, 2651, 8738, 5578, 8741, 8739
1857,  863, 2652, 2644,  857, 8742, 8743, 8708, 8744
1858, 2652,  531,  527, 2644, 8745, 6641, 8712, 8743
1859,  221, 2646, 2653,  222, 8720, 8746, 8747, 5541
1860, 2646,  555,  551, 2653, 8721, 6719, 8748, 8746
1861,  858, 2647, 3778, 2655, 8723, 8749, 8750, 8751
1862, 2647,  734, 2654, 3778, 8725, 8752, 8753, 8749
1863, 2655, 3778, 2649,  862, 8750, 8754, 8732, 8755
1864, 3778, 2654,  859, 2649, 8753, 8756, 8729, 8754
1865,  860,  859,  864,  865, 8726, 8757, 8758, 8759
1866,  317, 2656, 3779, 1654, 8760, 8761, 8762, 5839
1867, 2656,  623, 2016, 3779, 8763, 6867, 8764, 8761
1868, 1654, 3779, 2650,  315, 8762, 8765, 8733, 5842
1869, 3779, 2016,  619, 2650, 8764, 6869, 8735, 8765
1870,  302, 2651, 2657,  304, 8740, 8766, 8767, 5817
1871, 2651,  230,  232, 2657, 8741, 5581, 8768, 8766
1872,  866, 2658, 3780, 2659, 8769, 8770, 8771, 8772
1873, 2658,  535, 1958, 3780, 8773, 6648, 8774, 8770
1874, 2659, 3780, 2652,  863, 8771, 8775, 8742, 8776
1875, 3780, 1958,  531, 2652, 8774, 6650, 8745, 8775
1876,  222, 2653, 3781, 2661, 8747, 8777, 8778, 8779
1877, 2653,  551, 1966, 3781, 8748, 6684, 8780, 8777
1878, 2661, 3781, 2660,  126, 8778, 8781, 8782, 8783
1879, 3781, 1966,  547, 2660, 8780, 6686, 8784, 8781
1880,  859, 2654, 2662,  864, 8756, 8785, 8786, 8757
1881, 2654,  734,  733, 2662, 8752, 7420, 8787, 8785
1882,  865,  864, 2663, 2680, 8758, 8788, 8789, 8790
1883, 2680, 2663, 2664, 2679, 8789, 8791, 8792, 8793
1884, 2679, 2664, 2665, 2678, 8792, 8794, 8795, 8796
1885, 2678, 2665, 2666, 2677, 8795, 8797, 8798, 8799
1886, 2677, 2666, 2667, 2676, 8798, 8800, 8801, 8802
1887, 2676, 2667, 2668, 2675, 8801, 8803, 8804, 8805
1888, 2675, 2668, 2669, 2674, 8804, 8806, 8807, 8808
1889, 2674, 2669, 2670, 2673, 8807, 8809, 8810, 8811
1890, 2673, 2670, 2671, 2672, 8810, 8812, 8813, 8814
1891, 2672, 2671,  867,  868, 8813, 8815, 8816, 8817
1892,  319, 2681, 2656,  317, 8818, 8819, 8760, 5845
1893, 2681,  627,  623, 2656, 8820, 6875, 8763, 8819
1894,  304, 2657, 2682,  306, 8767, 8821, 8822, 5820
1895, 2657,  232,  234, 2682, 8768, 5584, 8823, 8821
1896,  535, 2658, 2683,  539, 8773, 8824, 8825, 6657
1897, 2658,  866,  869, 2683, 8769, 8826, 8827, 8824
1898,  126, 2660, 2684,  127, 8782, 8828, 8829, 4551
1899, 2660,  547,  543, 2684, 8784, 6677, 8830, 8828
1900,  125, 2685, 2661,  126, 8831, 8832, 8783, 4550
1901, 2685,  219,  222, 2661, 8833, 5542, 8779, 8832
1902,  864, 2662, 3782, 2663, 8786, 8834, 8835, 8788
1903, 2662,  733, 2300, 3782, 8787, 7439, 8836, 8834
1904, 2663, 3782, 3783, 2664, 8835, 8837, 8838, 8791
1905, 3782, 2300, 2299, 3783, 8836, 7442, 8839, 8837
1906, 2664, 3783, 3784, 2665, 8838, 8840, 8841, 8794
1907, 3783, 2299, 2298, 3784, 8839, 7445, 8842, 8840
1908, 2665, 3784, 3785, 2666, 8841, 8843, 8844, 8797
1909, 3784, 2298, 2297, 3785, 8842, 7448, 8845, 8843
1910, 2666, 3785, 3786, 2667, 8844, 8846, 8847, 8800
1911, 3785, 2297, 2296, 3786, 8845, 7451, 8848, 8846
1912, 2667, 3786, 3787, 2668, 8847, 8849, 8850, 8803
1913, 3786, 2296, 2295, 3787, 8848, 7454, 8851, 8849
1914, 2668, 3787, 3788, 2669, 8850, 8852, 8853, 8806
1915, 3787, 2295, 2294, 3788, 8851, 7457, 8854, 8852
1916, 2669, 3788, 3789, 2670, 8853, 8855, 8856, 8809
1917, 3788, 2294, 2293, 3789, 8854, 7460, 8857, 8855
1918, 2670, 3789, 3790, 2671, 8856, 8858, 8859, 8812
1919, 3789, 2293, 2292, 3790, 8857, 7463, 8860, 8858
1920, 2671, 3790, 2686,  867, 8859, 8861, 8862, 8815
1921, 3790, 2292,  738, 2686, 8860, 7466, 8863, 8861
1922,  868,  867,  870,  871, 8816, 8864, 8865, 8866
1923,  321, 2687, 3791, 1656, 8867, 8868, 8869, 5848
1924, 2687,  631, 2018, 3791, 8870, 6882, 8871, 8868
1925, 1656, 3791, 2681,  319, 8869, 8872, 8818, 5851
1926, 3791, 2018,  627, 2681, 8871, 6884, 8820, 8872
1927,  306, 2682, 2688,  308, 8822, 8873, 8874, 5823
1928, 2682,  234,  236, 2688, 8823, 5587, 8875, 8873
1929,  127, 2684, 3792, 2689, 8829, 8876, 8877, 8878
1930, 2684,  543, 1962, 3792, 8830, 6666, 8879, 8876
1931, 2689, 3792, 2683,  869, 8877, 8880, 8827, 8881
1932, 3792, 1962,  539, 2683, 8879, 6668, 8825, 8880
1933,  129, 2690, 3793, 1256, 8882, 8883, 8884, 4554
1934, 2690,  223, 1547, 3793, 8885, 5546, 8886, 8883
1935, 1256, 3793, 2685,  125, 8884, 8887, 8831, 4557
1936, 3793, 1547,  219, 2685, 8886, 5548, 8833, 8887
1937,  867, 2686, 2691,  870, 8862, 8888, 8889, 8864
1938, 2686,  738,  742, 2691, 8863, 7472, 8890, 8888
1939,  870, 2692, 2693,  871, 8891, 8892, 8893, 8865
1940, 2692,  872,  873, 2693, 8894, 8895, 8896, 8892
1941,  323, 2694, 2687,  321, 8897, 8898, 8867, 5854
1942, 2694,  635,  631, 2687, 8899, 6893, 8870, 8898
1943,  238, 2695, 2688,  236, 8900, 8901, 8875, 5589
1944, 2695,  310,  308, 2688, 8902, 5828, 8874, 8901
1945,  874, 2696, 2689,  869, 8903, 8904, 8881, 8905
1946, 2696,  124,  127, 2689, 8906, 4552, 8878, 8904
1947,  223, 2690, 3794, 1548, 8885, 8907, 8908, 5549
1948, 2690,  129, 1259, 3794, 8882, 4561, 8909, 8907
1949, 1548, 3794, 2697,  225, 8908, 8910, 8911, 5552
1950, 3794, 1259,  131, 2697, 8909, 4564, 8912, 8910
1951,  872, 2692, 3795, 2699, 8894, 8913, 8914, 8915
1952, 2692,  870, 2691, 3795, 8891, 8889, 8916, 8913
1953, 2699, 3795, 2698,  875, 8914, 8917, 8918, 8919
1954, 3795, 2691,  742, 2698, 8916, 8890, 8920, 8917
1955,  325, 2700, 3796, 1658, 8921, 8922, 8923, 5857
1956, 2700,  639, 2022, 3796, 8924, 6900, 8925, 8922
1957, 1658, 3796, 2694,  323, 8923, 8926, 8897, 5860
1958, 3796, 2022,  635, 2694, 8925, 6902, 8899, 8926
1959,  240, 2701, 3797, 1562, 8927, 8928, 8929, 5592
1960, 2701,  312, 1653, 3797, 8930, 5832, 8931, 8928
1961, 1562, 3797, 2695,  238, 8929, 8932, 8900, 5595
1962, 3797, 1653,  310, 2695, 8931, 5834, 8902, 8932
1963,  876, 2702, 3798, 2703, 8933, 8934, 8935, 8936
1964, 2702,  128, 1257, 3798, 8937, 4556, 8938, 8934
1965, 2703, 3798, 2696,  874, 8935, 8939, 8903, 8940
1966, 3798, 1257,  124, 2696, 8938, 4558, 8906, 8939
1967,  225, 2697, 3799, 1550, 8911, 8941, 8942, 5555
1968, 2697,  131, 1269, 3799, 8912, 4567, 8943, 8941
1969, 1550, 3799, 3800, 1551, 8942, 8944, 8945, 5558
1970, 3799, 1269, 1268, 3800, 8943, 4570, 8946, 8944
1971, 1551, 3800, 3801, 1552, 8945, 8947, 8948, 5561
1972, 3800, 1268, 1267, 3801, 8946, 4573, 8949, 8947
1973, 1552, 3801, 3802, 1553, 8948, 8950, 8951, 5564
1974, 3801, 1267, 1266, 3802, 8949, 4576, 8952, 8950
1975, 1553, 3802, 3803, 1554, 8951, 8953, 8954, 5567
1976, 3802, 1266, 1265, 3803, 8952, 4579, 8955, 8953
1977, 1554, 3803, 2704,  227, 8954, 8956, 8957, 5570
1978, 3803, 1265,  133, 2704, 8955, 4582, 8958, 8956
1979,  741, 2705, 2698,  742, 8959, 8960, 8920, 7471
1980, 2705,  877,  875, 2698, 8961, 8962, 8918, 8960
1981,  327, 2706, 2700,  325, 8963, 8964, 8921, 5863
1982, 2706,  643,  639, 2700, 8965, 6953, 8924, 8964
1983,  242, 2707, 2701,  240, 8966, 8967, 8927, 5598
1984, 2707,  314,  312, 2701, 8968, 5837, 8930, 8967
1985,  128, 2702, 3804, 1258, 8937, 8969, 8970, 4559
1986, 2702,  876, 2708, 3804, 8933, 8971, 8972, 8969
1987, 1258, 3804, 2709,  130, 8970, 8973, 8974, 4562
1988, 3804, 2708,  878, 2709, 8972, 8975, 8976, 8973
1989,  227, 2704, 3805, 1560, 8957, 8977, 8978, 5573
1990, 2704,  133, 1271, 3805, 8958, 4585, 8979, 8977
1991, 1560, 3805, 2710,  229, 8978, 8980, 8981, 5576
1992, 3805, 1271,  135, 2710, 8979, 4588, 8982, 8980
1993,  746, 2711, 3806, 2339, 8983, 8984, 8985, 7534
1994, 2711,  879, 2712, 3806, 8986, 8987, 8988, 8984
1995, 2339, 3806, 3807, 2340, 8985, 8989, 8990, 7537
1996, 3806, 2712, 2713, 3807, 8988, 8991, 8992, 8989
1997, 2340, 3807, 3808, 2341, 8990, 8993, 8994, 7540
1998, 3807, 2713, 2714, 3808, 8992, 8995, 8996, 8993
1999, 2341, 3808, 3809, 2342, 8994, 8997, 8998, 7543
2000, 3808, 2714, 2715, 3809, 8996, 8999, 9000, 8997
2001, 2342, 3809, 3810, 2343, 8998, 9001, 9002, 7546
2002, 3809, 2715, 2716, 3810, 9000, 9003, 9004, 9001
2003, 2343, 3810, 3811, 2344, 9002, 9005, 9006, 7549
2004, 3810, 2716, 2717, 3811, 9004, 9007, 9008, 9005
2005, 2344, 3811, 3812, 2345, 9006, 9009, 9010, 7552
2006, 3811, 2717, 2718, 3812, 9008, 9011, 9012, 9009
2007, 2345, 3812, 3813, 2346, 9010, 9013, 9014, 7555
2008, 3812, 2718, 2719, 3813, 9012, 9015, 9016, 9013
2009, 2346, 3813, 3814, 2347, 9014, 9017, 9018, 7558
2010, 3813, 2719, 2720, 3814, 9016, 9019, 9020, 9017
2011, 2347, 3814, 3815, 2348, 9018, 9021, 9022, 7561
2012, 3814, 2720, 2721, 3815, 9020, 9023, 9024, 9021
2013, 2348, 3815, 3816, 2349, 9022, 9025, 9026, 7564
2014, 3815, 2721, 2722, 3816, 9024, 9027, 9028, 9025
2015, 2349, 3816, 3817, 2350, 9026, 9029, 9030, 7567
2016, 3816, 2722, 2723, 3817, 9028, 9031, 9032, 9029
2017, 2350, 3817, 3818, 2351, 9030, 9033, 9034, 7570
2018, 3817, 2723, 2724, 3818, 9032, 9035, 9036, 9033
2019, 2351, 3818, 3819, 2352, 9034, 9037, 9038, 7573
2020, 3818, 2724, 2725, 3819, 9036, 9039, 9040, 9037
2021, 2352, 3819, 3820, 2353, 9038, 9041, 9042, 7576
2022, 3819, 2725, 2726, 3820, 9040, 9043, 9044, 9041
2023, 2353, 3820, 3821, 2354, 9042, 9045, 9046, 7579
2024, 3820, 2726, 2727, 3821, 9044, 9047, 9048, 9045
2025, 2354, 3821, 3822, 2355, 9046, 9049, 9050, 7582
2026, 3821, 2727, 2728, 3822, 9048, 9051, 9052, 9049
2027, 2355, 3822, 3823, 2356, 9050, 9053, 9054, 7585
2028, 3822, 2728, 2729, 3823, 9052, 9055, 9056, 9053
2029, 2356, 3823, 3824, 2357, 9054, 9057, 9058, 7588
2030, 3823, 2729, 2730, 3824, 9056, 9059, 9060, 9057
2031, 2357, 3824, 2705,  741, 9058, 9061, 8959, 7591
2032, 3824, 2730,  877, 2705, 9060, 9062, 8961, 9061
2033,  329, 2731, 3825, 1660, 9063, 9064, 9065, 5866
2034, 2731,  647, 2062, 3825, 9066, 6972, 9067, 9064
2035, 1660, 3825, 2706,  327, 9065, 9068, 8963, 5869
2036, 3825, 2062,  643, 2706, 9067, 6974, 8965, 9068
2037,  244, 2732, 3826, 1564, 9069, 9070, 9071, 5601
2038, 2732,  316, 1655, 3826, 9072, 5841, 9073, 9070
2039, 1564, 3826, 2707,  242, 9071, 9074, 8966, 5604
2040, 3826, 1655,  314, 2707, 9073, 5843, 8968, 9074
2041,  130, 2709, 3827, 1260, 8974, 9075, 9076, 4565
2042, 2709,  878, 2733, 3827, 8976, 9077, 9078, 9075
2043, 1260, 3827, 3828, 1261, 9076, 9079, 9080, 4568
2044, 3827, 2733, 2734, 3828, 9078, 9081, 9082, 9079
2045, 1261, 3828, 3829, 1262, 9080, 9083, 9084, 4571
2046, 3828, 2734, 2735, 3829, 9082, 9085, 9086, 9083
2047, 1262, 3829, 3830, 1263, 9084, 9087, 9088, 4574
2048, 3829, 2735, 2736, 3830, 9086, 9089, 9090, 9087
2049, 1263, 3830, 3831, 1264, 9088, 9091, 9092, 4577
2050, 3830, 2736, 2737, 3831, 9090, 9093, 9094, 9091
2051, 1264, 3831, 2738,  132, 9092, 9095, 9096, 4580
2052, 3831, 2737,  880, 2738, 9094, 9097, 9098, 9095
2053,  229, 2710, 2739,  231, 8981, 9099, 9100, 5579
2054, 2710,  135,  137, 2739, 8982, 4591, 9101, 9099
2055,  879, 2711, 3832, 2741, 8986, 9102, 9103, 9104
2056, 2711,  746, 2380, 3832, 8983, 7601, 9105, 9102
2057, 2741, 3832, 2740,  881, 9103, 9106, 9107, 9108
2058, 3832, 2380,  750, 2740, 9105, 7604, 9109, 9106
2059,  331, 2742, 2731,  329, 9110, 9111, 9063, 5872
2060, 2742,  651,  647, 2731, 9112, 7049, 9066, 9111
2061,  246, 2743, 2732,  244, 9113, 9114, 9069, 5607
2062, 2743,  318,  316, 2732, 9115, 5846, 9072, 9114
2063,  132, 2738, 3833, 1270, 9096, 9116, 9117, 4583
2064, 2738,  880, 2744, 3833, 9098, 9118, 9119, 9116
2065, 1270, 3833, 2745,  134, 9117, 9120, 9121, 4586
2066, 3833, 2744,  882, 2745, 9119, 9122, 9123, 9120
2067,  231, 2739, 2746,  233, 9100, 9124, 9125, 5582
2068, 2739,  137,  139, 2746, 9101, 4594, 9126, 9124
2069,  754, 2747, 2740,  750, 9127, 9128, 9109, 7609
2070, 2747,  883,  881, 2740, 9129, 9130, 9107, 9128
2071,  333, 2748, 3834, 1662, 9131, 9132, 9133, 5875
2072, 2748,  655, 2112, 3834, 9134, 7059, 9135, 9132
2073, 1662, 3834, 2742,  331, 9133, 9136, 9110, 5878
2074, 3834, 2112,  651, 2742, 9135, 7061, 9112, 9136
2075,  248, 2749, 3835, 1566, 9137, 9138, 9139, 5610
2076, 2749,  320, 1657, 3835, 9140, 5850, 9141, 9138
2077, 1566, 3835, 2743,  246, 9139, 9142, 9113, 5613
2078, 3835, 1657,  318, 2743, 9141, 5852, 9115, 9142
2079,  134, 2745, 2750,  136, 9121, 9143, 9144, 4589
2080, 2745,  882,  884, 2750, 9123, 9145, 9146, 9143
2081,  233, 2746, 2751,  235, 9125, 9147, 9148, 5585
2082, 2746,  139,  141, 2751, 9126, 4597, 9149, 9147
2083,  766, 2752, 3836, 2387, 9150, 9151, 9152, 7636
2084, 2752,  883, 2747, 3836, 9153, 9129, 9154, 9151
2085, 2387, 3836, 2384,  758, 9152, 9155, 7622, 7639
2086, 3836, 2747,  754, 2384, 9154, 9127, 7619, 9155
2087,  335, 2753, 2748,  333, 9156, 9157, 9131, 5882
2088, 2753,  659,  655, 2748, 9158, 7067, 9134, 9157
2089,  250, 2754, 2749,  248, 9159, 9160, 9137, 5616
2090, 2754,  322,  320, 2749, 9161, 5855, 9140, 9160
2091,  136, 2750, 2755,  138, 9144, 9162, 9163, 4592
2092, 2750,  884,  885, 2755, 9146, 9164, 9165, 9162
2093,  143, 2756, 2751,  141, 9166, 9167, 9149, 4599
2094, 2756,  237,  235, 2751, 9168, 5590, 9148, 9167
2095,  883, 2752, 2757,  886, 9153, 9169, 9170, 9171
2096, 2752,  766,  770, 2757, 9150, 7646, 9172, 9169
2097,  335, 2758, 3837, 2753, 9173, 9174, 9175, 9156
2098, 2758,  671, 2120, 3837, 9176, 7095, 9177, 9174
2099, 2753, 3837, 2116,  659, 9175, 9178, 7079, 9158
2100, 3837, 2120,  663, 2116, 9177, 7097, 7077, 9178
2101,  252, 2759, 3838, 1568, 9179, 9180, 9181, 5619
2102, 2759,  324, 1659, 3838, 9182, 5859, 9183, 9180
2103, 1568, 3838, 2754,  250, 9181, 9184, 9159, 5622
2104, 3838, 1659,  322, 2754, 9183, 5861, 9161, 9184
2105,  138, 2755, 2760,  140, 9163, 9185, 9186, 4595
2106, 2755,  885,  887, 2760, 9165, 9187, 9188, 9185
2107,  145, 2761, 3839, 1272, 9189, 9190, 9191, 4602
2108, 2761,  239, 1563, 3839, 9192, 5594, 9193, 9190
2109, 1272, 3839, 2756,  143, 9191, 9194, 9166, 4605
2110, 3839, 1563,  237, 2756, 9193, 5596, 9168, 9194
2111,  774, 2762, 3840, 2391, 9195, 9196, 9197, 7654
2112, 2762,  888, 2763, 3840, 9198, 9199, 9200, 9196
2113, 2391, 3840, 2757,  770, 9197, 9201, 9172, 7657
2114, 3840, 2763,  886, 2757, 9200, 9202, 9170, 9201
2115,  334, 2764, 2758,  335, 9203, 9204, 9173, 5881
2116, 2764,  675,  671, 2758, 9205, 7103, 9176, 9204
2117,  254, 2765, 2759,  252, 9206, 9207, 9179, 5625
2118, 2765,  326,  324, 2759, 9208, 5864, 9182, 9207
2119,  889, 2766, 2760,  887, 9209, 9210, 9188, 9211
2120, 2766,  142,  140, 2760, 9212, 4600, 9186, 9210
2121,  147, 2767, 2761,  145, 9213, 9214, 9189, 4608
2122, 2767,  241,  239, 2761, 9215, 5599, 9192, 9214
2123,  888, 2762, 2768,  890, 9198, 9216, 9217, 9218
2124, 2762,  774,  771, 2768, 9195, 9219, 9220, 9216
2125,  337, 2769, 3841, 1664, 9221, 9222, 9223, 5884
2126, 2769,  679, 2122, 3841, 9224, 7110, 9225, 9222
2127, 1664, 3841, 2764,  334, 9223, 9226, 9203, 5887
2128, 3841, 2122,  675, 2764, 9225, 7112, 9205, 9226
2129,  256, 2770, 3842, 1570, 9227, 9228, 9229, 5628
2130, 2770,  328, 1661, 3842, 9230, 5868, 9231, 9228
2131, 1570, 3842, 2765,  254, 9229, 9232, 9206, 5631
2132, 3842, 1661,  326, 2765, 9231, 5870, 9208, 9232
2133,  891, 2771, 3843, 2772, 9233, 9234, 9235, 9236
2134, 2771,  144, 1273, 3843, 9237, 4604, 9238, 9234
2135, 2772, 3843, 2766,  889, 9235, 9239, 9209, 9240
2136, 3843, 1273,  142, 2766, 9238, 4606, 9212, 9239
2137,  149, 2773, 3844, 1274, 9241, 9242, 9243, 4611
2138, 2773,  243, 1565, 3844, 9244, 5603, 9245, 9242
2139, 1274, 3844, 2767,  147, 9243, 9246, 9213, 4614
2140, 3844, 1565,  241, 2767, 9245, 5605, 9215, 9246
2141,  767, 2774, 3845, 2389, 9247, 9248, 9249, 7647
2142, 2774,  892, 2775, 3845, 9250, 9251, 9252, 9248
2143, 2389, 3845, 2768,  771, 9249, 9253, 9220, 7650
2144, 3845, 2775,  890, 2768, 9252, 9254, 9217, 9253
2145,  339, 2776, 2769,  337, 9255, 9256, 9221, 5890
2146, 2776,  683,  679, 2769, 9257, 7118, 9224, 9256
2147,  258, 2777, 2770,  256, 9258, 9259, 9227, 5635
2148, 2777,  330,  328, 2770, 9260, 5873, 9230, 9259
2149,  893, 2778, 2771,  891, 9261, 9262, 9233, 9263
2150, 2778,  146,  144, 2771, 9264, 4609, 9237, 9262
2151,  151, 2779, 2773,  149, 9265, 9266, 9241, 4617
2152, 2779,  245,  243, 2773, 9267, 5608, 9244, 9266
2153,  892, 2774, 2780,  894, 9250, 9268, 9269, 9270
2154, 2774,  767,  763, 2780, 9247, 7643, 9271, 9268
2155,  341, 2781, 3846, 1666, 9272, 9273, 9274, 5893
2156, 2781,  687, 2124, 3846, 9275, 7125, 9276, 9273
2157, 1666, 3846, 2776,  339, 9274, 9277, 9255, 5896
2158, 3846, 2124,  683, 2776, 9276, 7127, 9257, 9277
2159,  258, 2782, 3847, 2777, 9278, 9279, 9280, 9258
2160, 2782,  336, 1665, 3847, 9281, 5886, 9282, 9279
2161, 2777, 3847, 1663,  330, 9280, 9283, 5879, 9260
2162, 3847, 1665,  332, 1663, 9282, 5888, 5877, 9283
2163,  895, 2783, 3848, 2784, 9284, 9285, 9286, 9287
2164, 2783,  148, 1275, 3848, 9288, 4613, 9289, 9285
2165, 2784, 3848, 2778,  893, 9286, 9290, 9261, 9291
2166, 3848, 1275,  146, 2778, 9289, 4615, 9264, 9290
2167,  153, 2785, 3849, 1276, 9292, 9293, 9294, 4620
2168, 2785,  247, 1567, 3849, 9295, 5612, 9296, 9293
2169, 1276, 3849, 2779,  151, 9294, 9297, 9265, 4623
2170, 3849, 1567,  245, 2779, 9296, 5614, 9267, 9297
2171,  894, 2780, 3850, 2786, 9269, 9298, 9299, 9300
2172, 2780,  763, 2385, 3850, 9271, 7632, 9301, 9298
2173, 2786, 3850, 2382,  751, 9299, 9302, 7616, 9303
2174, 3850, 2385,  755, 2382, 9301, 7629, 7614, 9302
2175,  343, 2787, 2781,  341, 9304, 9305, 9272, 5899
2176, 2787,  691,  687, 2781, 9306, 7133, 9275, 9305
2177,  257, 2788, 2782,  258, 9307, 9308, 9278, 5634
2178, 2788,  338,  336, 2782, 9309, 5891, 9281, 9308
2179,  896, 2789, 2783,  895, 9310, 9311, 9284, 9312
2180, 2789,  150,  148, 2783, 9313, 4618, 9288, 9311
2181,  155, 2790, 2785,  153, 9314, 9315, 9292, 4626
2182, 2790,  249,  247, 2785, 9316, 5617, 9295, 9315
2183,  747, 2791, 2786,  751, 9317, 9318, 9303, 7605
2184, 2791,  897,  894, 2786, 9319, 9320, 9300, 9318
2185,  345, 2792, 3851, 1668, 9321, 9322, 9323, 5902
2186, 2792,  695, 2126, 3851, 9324, 7140, 9325, 9322
2187, 1668, 3851, 2787,  343, 9323, 9326, 9304, 5905
2188, 3851, 2126,  691, 2787, 9325, 7142, 9306, 9326
2189,  260, 2793, 3852, 1572, 9327, 9328, 9329, 5637
2190, 2793,  340, 1667, 3852, 9330, 5895, 9331, 9328
2191, 1572, 3852, 2788,  257, 9329, 9332, 9307, 5640
2192, 3852, 1667,  338, 2788, 9331, 5897, 9309, 9332
2193,  898, 2794, 3853, 2795, 9333, 9334, 9335, 9336
2194, 2794,  152, 1277, 3853, 9337, 4622, 9338, 9334
2195, 2795, 3853, 2789,  896, 9335, 9339, 9310, 9340
2196, 3853, 1277,  150, 2789, 9338, 4624, 9313, 9339
2197,  157, 2796, 3854, 1278, 9341, 9342, 9343, 4629
2198, 2796,  251, 1569, 3854, 9344, 5621, 9345, 9342
2199, 1278, 3854, 2790,  155, 9343, 9346, 9314, 4632
2200, 3854, 1569,  249, 2790, 9345, 5623, 9316, 9346
2201,  897, 2791, 3855, 2798, 9319, 9347, 9348, 9349
2202, 2791,  747, 2378, 3855, 9317, 7596, 9350, 9347
2203, 2798, 3855, 2797,  899, 9348, 9351, 9352, 9353
2204, 3855, 2378,  743, 2797, 9350, 7598, 9354, 9351
2205,  347, 2799, 2792,  345, 9355, 9356, 9321, 5908
2206, 2799,  699,  695, 2792, 9357, 7148, 9324, 9356
2207,  262, 2800, 2793,  260, 9358, 9359, 9327, 5643
2208, 2800,  342,  340, 2793, 9360, 5900, 9330, 9359
2209,  900, 2801, 2794,  898, 9361, 9362, 9333, 9363
2210, 2801,  154,  152, 2794, 9364, 4627, 9337, 9362
2211,  159, 2802, 2796,  157, 9365, 9366, 9341, 4636
2212, 2802,  253,  251, 2796, 9367, 5626, 9344, 9366
2213,  739, 2803, 3856, 2301, 9368, 9369, 9370, 7473
2214, 2803,  901, 2804, 3856, 9371, 9372, 9373, 9369
2215, 2301, 3856, 3857, 2302, 9370, 9374, 9375, 7476
2216, 3856, 2804, 2805, 3857, 9373, 9376, 9377, 9374
2217, 2302, 3857, 3858, 2303, 9375, 9378, 9379, 7479
2218, 3857, 2805, 2806, 3858, 9377, 9380, 9381, 9378
2219, 2303, 3858, 3859, 2304, 9379, 9382, 9383, 7482
2220, 3858, 2806, 2807, 3859, 9381, 9384, 9385, 9382
2221, 2304, 3859, 3860, 2305, 9383, 9386, 9387, 7485
2222, 3859, 2807, 2808, 3860, 9385, 9388, 9389, 9386
2223, 2305, 3860, 3861, 2306, 9387, 9390, 9391, 7488
2224, 3860, 2808, 2809, 3861, 9389, 9392, 9393, 9390
2225, 2306, 3861, 3862, 2307, 9391, 9394, 9395, 7491
2226, 3861, 2809, 2810, 3862, 9393, 9396, 9397, 9394
2227, 2307, 3862, 3863, 2308, 9395, 9398, 9399, 7494
2228, 3862, 2810, 2811, 3863, 9397, 9400, 9401, 9398
2229, 2308, 3863, 3864, 2309, 9399, 9402, 9403, 7497
2230, 3863, 2811, 2812, 3864, 9401, 9404, 9405, 9402
2231, 2309, 3864, 3865, 2310, 9403, 9406, 9407, 7500
2232, 3864, 2812, 2813, 3865, 9405, 9408, 9409, 9406
2233, 2310, 3865, 3866, 2311, 9407, 9410, 9411, 7503
2234, 3865, 2813, 2814, 3866, 9409, 9412, 9413, 9410
2235, 2311, 3866, 3867, 2312, 9411, 9414, 9415, 7506
2236, 3866, 2814, 2815, 3867, 9413, 9416, 9417, 9414
2237, 2312, 3867, 3868, 2313, 9415, 9418, 9419, 7509
2238, 3867, 2815, 2816, 3868, 9417, 9420, 9421, 9418
2239, 2313, 3868, 3869, 2314, 9419, 9422, 9423, 7512
2240, 3868, 2816, 2817, 3869, 9421, 9424, 9425, 9422
2241, 2314, 3869, 3870, 2315, 9423, 9426, 9427, 7515
2242, 3869, 2817, 2818, 3870, 9425, 9428, 9429, 9426
2243, 2315, 3870, 3871, 2316, 9427, 9430, 9431, 7518
2244, 3870, 2818, 2819, 3871, 9429, 9432, 9433, 9430
2245, 2316, 3871, 3872, 2317, 9431, 9434, 9435, 7521
2246, 3871, 2819, 2820, 3872, 9433, 9436, 9437, 9434
2247, 2317, 3872, 3873, 2318, 9435, 9438, 9439, 7524
2248, 3872, 2820, 2821, 3873, 9437, 9440, 9441, 9438
2249, 2318, 3873, 3874, 2319, 9439, 9442, 9443, 7527
2250, 3873, 2821, 2822, 3874, 9441, 9444, 9445, 9442
2251, 2319, 3874, 2797,  743, 9443, 9446, 9354, 7530
2252, 3874, 2822,  899, 2797, 9445, 9447, 9352, 9446
2253,  349, 2823, 3875, 1670, 9448, 9449, 9450, 5911
2254, 2823,  703, 2130, 3875, 9451, 7158, 9452, 9449
2255, 1670, 3875, 2799,  347, 9450, 9453, 9355, 5914
2256, 3875, 2130,  699, 2799, 9452, 7160, 9357, 9453
2257,  264, 2824, 3876, 1574, 9454, 9455, 9456, 5646
2258, 2824,  344, 1669, 3876, 9457, 5904, 9458, 9455
2259, 1574, 3876, 2800,  262, 9456, 9459, 9358, 5649
2260, 3876, 1669,  342, 2800, 9458, 5906, 9360, 9459
2261,  900, 2825, 3877, 2801, 9460, 9461, 9462, 9361
2262, 2825,  160, 1281, 3877, 9463, 4640, 9464, 9461
2263, 2801, 3877, 1279,  154, 9462, 9465, 4633, 9364
2264, 3877, 1281,  156, 1279, 9464, 4642, 4631, 9465
2265,  159, 2826, 3878, 2802, 9466, 9467, 9468, 9365
2266, 2826,  259, 1573, 3878, 9469, 5639, 9470, 9467
2267, 2802, 3878, 1571,  253, 9468, 9471, 5632, 9367
2268, 3878, 1573,  255, 1571, 9470, 5641, 5630, 9471
2269,  901, 2803, 2827,  902, 9371, 9472, 9473, 9474
2270, 2803,  739,  740, 2827, 9368, 7469, 9475, 9472
2271,  351, 2828, 2823,  349, 9476, 9477, 9448, 5917
2272, 2828,  707,  703, 2823, 9478, 7166, 9451, 9477
2273,  266, 2829, 2824,  264, 9479, 9480, 9454, 5652
2274, 2829,  346,  344, 2824, 9481, 5909, 9457, 9480
2275,  903, 2830, 2831,  906, 9482, 9483, 9484, 9485
2276, 2830,  904,  905, 2831, 9486, 9487, 9488, 9483
2277,  907, 2832, 2825,  900, 9489, 9490, 9460, 9491
2278, 2832,  162,  160, 2825, 9492, 4645, 9463, 9490
2279,  158, 2833, 2826,  159, 9493, 9494, 9466, 4635
2280, 2833,  261,  259, 2826, 9495, 5644, 9469, 9494
2281,  904, 2830, 3879, 2835, 9486, 9496, 9497, 9498
2282, 2830,  903, 2834, 3879, 9482, 9499, 9500, 9496
2283, 2835, 3879, 2827,  740, 9497, 9501, 9475, 9502
2284, 3879, 2834,  902, 2827, 9500, 9503, 9473, 9501
2285,  353, 2836, 3880, 1672, 9504, 9505, 9506, 5920
2286, 2836,  711, 2134, 3880, 9507, 7176, 9508, 9505
2287, 1672, 3880, 2828,  351, 9506, 9509, 9476, 5923
2288, 3880, 2134,  707, 2828, 9508, 7178, 9478, 9509
2289,  268, 2837, 3881, 1576, 9510, 9511, 9512, 5655
2290, 2837,  348, 1671, 3881, 9513, 5913, 9514, 9511
2291, 1576, 3881, 2829,  266, 9512, 9515, 9479, 5658
2292, 3881, 1671,  346, 2829, 9514, 5915, 9481, 9515
2293,  908,  909,  905,  904, 9516, 9517, 9487, 9518
2294,  910, 2838, 3882, 2839, 9519, 9520, 9521, 9522
2295, 2838,  164, 1283, 3882, 9523, 4649, 9524, 9520
2296, 2839, 3882, 2832,  907, 9521, 9525, 9489, 9526
2297, 3882, 1283,  162, 2832, 9524, 4651, 9492, 9525
2298,  161, 2840, 3883, 1280, 9527, 9528, 9529, 4638
2299, 2840,  263, 1575, 3883, 9530, 5648, 9531, 9528
2300, 1280, 3883, 2833,  158, 9529, 9532, 9493, 4641
2301, 3883, 1575,  261, 2833, 9531, 5650, 9495, 9532
2302,  735, 2841, 2835,  740, 9533, 9534, 9502, 7468
2303, 2841,  908,  904, 2835, 9535, 9518, 9498, 9534
2304,  359, 2842, 2836,  353, 9536, 9537, 9504, 5930
2305, 2842,  715,  711, 2836, 9538, 7184, 9507, 9537
2306,  270, 2843, 2837,  268, 9539, 9540, 9510, 5661
2307, 2843,  350,  348, 2837, 9541, 5918, 9513, 9540
2308,  911,  912, 2844, 2851, 9542, 9543, 9544, 9545
2309, 2851, 2844, 2845, 2850, 9544, 9546, 9547, 9548
2310, 2850, 2845, 2846, 2849, 9547, 9549, 9550, 9551
2311, 2849, 2846, 2847, 2848, 9550, 9552, 9553, 9554
2312, 2848, 2847,  909,  908, 9553, 9555, 9516, 9556
2313,  913, 2852, 2838,  910, 9557, 9558, 9519, 9559
2314, 2852,  166,  164, 2838, 9560, 4654, 9523, 9558
2315,  163, 2853, 2840,  161, 9561, 9562, 9527, 4644
2316, 2853,  265,  263, 2840, 9563, 5653, 9530, 9562
2317,  731, 2854, 3884, 2275, 9564, 9565, 9566, 7422
2318, 2854,  911, 2851, 3884, 9567, 9545, 9568, 9565
2319, 2275, 3884, 3885, 2276, 9566, 9569, 9570, 7425
2320, 3884, 2851, 2850, 3885, 9568, 9548, 9571, 9569
2321, 2276, 3885, 3886, 2277, 9570, 9572, 9573, 7428
2322, 3885, 2850, 2849, 3886, 9571, 9551, 9574, 9572
2323, 2277, 3886, 3887, 2278, 9573, 9575, 9576, 7431
2324, 3886, 2849, 2848, 3887, 9574, 9554, 9577, 9575
2325, 2278, 3887, 2841,  735, 9576, 9578, 9533, 7434
2326, 3887, 2848,  908, 2841, 9577, 9556, 9535, 9578
2327,  360, 2855, 3888, 2856, 9579, 9580, 9581, 9582
2328, 2855,  719, 2138, 3888, 9583, 7194, 9584, 9580
2329, 2856, 3888, 2842,  359, 9581, 9585, 9536, 9586
2330, 3888, 2138,  715, 2842, 9584, 7196, 9538, 9585
2331,  272, 2857, 3889, 1578, 9587, 9588, 9589, 5664
2332, 2857,  352, 1673, 3889, 9590, 5922, 9591, 9588
2333, 1578, 3889, 2843,  270, 9589, 9592, 9539, 5667
2334, 3889, 1673,  350, 2843, 9591, 5924, 9541, 9592
2335,  914,  915, 2858, 2865, 9593, 9594, 9595, 9596
2336, 2865, 2858, 2859, 2864, 9595, 9597, 9598, 9599
2337, 2864, 2859, 2860, 2863, 9598, 9600, 9601, 9602
2338, 2863, 2860, 2861, 2862, 9601, 9603, 9604, 9605
2339, 2862, 2861,  912,  911, 9604, 9606, 9542, 9607
2340,  916, 2866, 3890, 2867, 9608, 9609, 9610, 9611
2341, 2866,  168, 1285, 3890, 9612, 4658, 9613, 9609
2342, 2867, 3890, 2852,  913, 9610, 9614, 9557, 9615
2343, 3890, 1285,  166, 2852, 9613, 4660, 9560, 9614
2344,  165, 2868, 3891, 1282, 9616, 9617, 9618, 4647
2345, 2868,  267, 1577, 3891, 9619, 5657, 9620, 9617
2346, 1282, 3891, 2853,  163, 9618, 9621, 9561, 4650
2347, 3891, 1577,  265, 2853, 9620, 5659, 9563, 9621
2348,  728, 2869, 3892, 2267, 9622, 9623, 9624, 7404
2349, 2869,  914, 2865, 3892, 9625, 9596, 9626, 9623
2350, 2267, 3892, 3893, 2268, 9624, 9627, 9628, 7407
2351, 3892, 2865, 2864, 3893, 9626, 9599, 9629, 9627
2352, 2268, 3893, 3894, 2269, 9628, 9630, 9631, 7410
2353, 3893, 2864, 2863, 3894, 9629, 9602, 9632, 9630
2354, 2269, 3894, 3895, 2270, 9631, 9633, 9634, 7413
2355, 3894, 2863, 2862, 3895, 9632, 9605, 9635, 9633
2356, 2270, 3895, 2854,  731, 9634, 9636, 9564, 7416
2357, 3895, 2862,  911, 2854, 9635, 9607, 9567, 9636
2358,  719, 2855, 3896, 2185, 9583, 9637, 9638, 7269
2359, 2855,  360, 1717, 3896, 9579, 5935, 9639, 9637
2360, 2185, 3896, 3897, 2186, 9638, 9640, 9641, 7272
2361, 3896, 1717, 1716, 3897, 9639, 5938, 9642, 9640
2362, 2186, 3897, 3898, 2187, 9641, 9643, 9644, 7275
2363, 3897, 1716, 1715, 3898, 9642, 5941, 9645, 9643
2364, 2187, 3898, 3899, 2188, 9644, 9646, 9647, 7278
2365, 3898, 1715, 1714, 3899, 9645, 5944, 9648, 9646
2366, 2188, 3899, 3900, 2189, 9647, 9649, 9650, 7281
2367, 3899, 1714, 1713, 3900, 9648, 5947, 9651, 9649
2368, 2189, 3900, 3901, 2190, 9650, 9652, 9653, 7284
2369, 3900, 1713, 1712, 3901, 9651, 5950, 9654, 9652
2370, 2190, 3901, 3902, 2191, 9653, 9655, 9656, 7287
2371, 3901, 1712, 1711, 3902, 9654, 5953, 9657, 9655
2372, 2191, 3902, 3903, 2192, 9656, 9658, 9659, 7290
2373, 3902, 1711, 1710, 3903, 9657, 5956, 9660, 9658
2374, 2192, 3903, 3904, 2193, 9659, 9661, 9662, 7293
2375, 3903, 1710, 1709, 3904, 9660, 5959, 9663, 9661
2376, 2193, 3904, 3905, 2194, 9662, 9664, 9665, 7296
2377, 3904, 1709, 1708, 3905, 9663, 5962, 9666, 9664
2378, 2194, 3905, 3906, 2195, 9665, 9667, 9668, 7299
2379, 3905, 1708, 1707, 3906, 9666, 5965, 9669, 9667
2380, 2195, 3906, 3907, 2196, 9668, 9670, 9671, 7302
2381, 3906, 1707, 1706, 3907, 9669, 5968, 9672, 9670
2382, 2196, 3907, 3908, 2197, 9671, 9673, 9674, 7305
2383, 3907, 1706, 1705, 3908, 9672, 5971, 9675, 9673
2384, 2197, 3908, 3909, 2198, 9674, 9676, 9677, 7308
2385, 3908, 1705, 1704, 3909, 9675, 5974, 9678, 9676
2386, 2198, 3909, 3910, 2199, 9677, 9679, 9680, 7311
2387, 3909, 1704, 1703, 3910, 9678, 5977, 9681, 9679
2388, 2199, 3910, 3911, 2200, 9680, 9682, 9683, 7314
2389, 3910, 1703, 1702, 3911, 9681, 5980, 9684, 9682
2390, 2200, 3911, 3912, 2201, 9683, 9685, 9686, 7317
2391, 3911, 1702, 1701, 3912, 9684, 5983, 9687, 9685
2392, 2201, 3912, 3913, 2202, 9686, 9688, 9689, 7320
2393, 3912, 1701, 1700, 3913, 9687, 5986, 9690, 9688
2394, 2202, 3913, 3914, 2203, 9689, 9691, 9692, 7323
2395, 3913, 1700, 1699, 3914, 9690, 5989, 9693, 9691
2396, 2203, 3914, 3915, 2204, 9692, 9694, 9695, 7326
2397, 3914, 1699, 1698, 3915, 9693, 5992, 9696, 9694
2398, 2204, 3915, 3916, 2205, 9695, 9697, 9698, 7329
2399, 3915, 1698, 1697, 3916, 9696, 5995, 9699, 9697
2400, 2205, 3916, 3917, 2206, 9698, 9700, 9701, 7332
2401, 3916, 1697, 1696, 3917, 9699, 5998, 9702, 9700
2402, 2206, 3917, 2870,  723, 9701, 9703, 9704, 7335
2403, 3917, 1696,  354, 2870, 9702, 6000, 9705, 9703
2404,  278, 2871, 2857,  272, 9706, 9707, 9587, 5674
2405, 2871,  358,  352, 2857, 9708, 5931, 9590, 9707
2406,  917,  918,  915,  914, 9709, 9710, 9593, 9711
2407,  919, 2872, 2866,  916, 9712, 9713, 9608, 9714
2408, 2872,  174,  168, 2866, 9715, 4667, 9612, 9713
2409,  167, 2873, 2868,  165, 9716, 9717, 9616, 4653
2410, 2873,  269,  267, 2868, 9718, 5662, 9619, 9717
2411,  727, 2874, 2869,  728, 9719, 9720, 9622, 7354
2412, 2874,  917,  914, 2869, 9721, 9711, 9625, 9720
2413,  723, 2870, 2875,  727, 9704, 9722, 9723, 7353
2414, 2870,  354,  357, 2875, 9705, 5928, 9724, 9722
2415,  279, 2876, 3918, 2878, 9725, 9726, 9727, 9728
2416, 2876,  361, 2877, 3918, 9729, 9730, 9731, 9726
2417, 2878, 3918, 2871,  278, 9727, 9732, 9706, 9733
2418, 3918, 2877,  358, 2871, 9731, 9734, 9708, 9732
2419,  920,  921, 2879, 2880, 9735, 9736, 9737, 9738
2420, 2880, 2879,  918,  917, 9737, 9739, 9709, 9740
2421,  922, 2881, 3919, 2883, 9741, 9742, 9743, 9744
2422, 2881,  177, 2882, 3919, 9745, 9746, 9747, 9742
2423, 2883, 3919, 2872,  919, 9743, 9748, 9712, 9749
2424, 3919, 2882,  174, 2872, 9747, 9750, 9715, 9748
2425,  169, 2884, 3920, 1284, 9751, 9752, 9753, 4656
2426, 2884,  271, 1579, 3920, 9754, 5666, 9755, 9752
2427, 1284, 3920, 2873,  167, 9753, 9756, 9716, 4659
2428, 3920, 1579,  269, 2873, 9755, 5668, 9718, 9756
2429,  727, 2875, 3921, 2874, 9723, 9757, 9758, 9719
2430, 2875,  357, 2885, 3921, 9724, 9759, 9760, 9757
2431, 2874, 3921, 2880,  917, 9758, 9761, 9740, 9721
2432, 3921, 2885,  920, 2880, 9760, 9762, 9738, 9761
2433,  361, 2876, 3922, 1674, 9729, 9763, 9764, 5933
2434, 2876,  279, 1623, 3922, 9725, 5679, 9765, 9763
2435, 1674, 3922, 3923, 1675, 9764, 9766, 9767, 5936
2436, 3922, 1623, 1622, 3923, 9765, 5682, 9768, 9766
2437, 1675, 3923, 3924, 1676, 9767, 9769, 9770, 5939
2438, 3923, 1622, 1621, 3924, 9768, 5685, 9771, 9769
2439, 1676, 3924, 3925, 1677, 9770, 9772, 9773, 5942
2440, 3924, 1621, 1620, 3925, 9771, 5688, 9774, 9772
2441, 1677, 3925, 3926, 1678, 9773, 9775, 9776, 5945
2442, 3925, 1620, 1619, 3926, 9774, 5691, 9777, 9775
2443, 1678, 3926, 3927, 1679, 9776, 9778, 9779, 5948
2444, 3926, 1619, 1618, 3927, 9777, 5694, 9780, 9778
2445, 1679, 3927, 3928, 1680, 9779, 9781, 9782, 5951
2446, 3927, 1618, 1617, 3928, 9780, 5697, 9783, 9781
2447, 1680, 3928, 3929, 1681, 9782, 9784, 9785, 5954
2448, 3928, 1617, 1616, 3929, 9783, 5700, 9786, 9784
2449, 1681, 3929, 3930, 1682, 9785, 9787, 9788, 5957
2450, 3929, 1616, 1615, 3930, 9786, 5703, 9789, 9787
2451, 1682, 3930, 3931, 1683, 9788, 9790, 9791, 5960
2452, 3930, 1615, 1614, 3931, 9789, 5706, 9792, 9790
2453, 1683, 3931, 3932, 1684, 9791, 9793, 9794, 5963
2454, 3931, 1614, 1613, 3932, 9792, 5709, 9795, 9793
2455, 1684, 3932, 3933, 1685, 9794, 9796, 9797, 5966
2456, 3932, 1613, 1612, 3933, 9795, 5712, 9798, 9796
2457, 1685, 3933, 3934, 1686, 9797, 9799, 9800, 5969
2458, 3933, 1612, 1611, 3934, 9798, 5715, 9801, 9799
2459, 1686, 3934, 3935, 1687, 9800, 9802, 9803, 5972
2460, 3934, 1611, 1610, 3935, 9801, 5718, 9804, 9802
2461, 1687, 3935, 3936, 1688, 9803, 9805, 9806, 5975
2462, 3935, 1610, 1609, 3936, 9804, 5721, 9807, 9805
2463, 1688, 3936, 3937, 1689, 9806, 9808, 9809, 5978
2464, 3936, 1609, 1608, 3937, 9807, 5724, 9810, 9808
2465, 1689, 3937, 3938, 1690, 9809, 9811, 9812, 5981
2466, 3937, 1608, 1607, 3938, 9810, 5727, 9813, 9811
2467, 1690, 3938, 3939, 1691, 9812, 9814, 9815, 5984
2468, 3938, 1607, 1606, 3939, 9813, 5730, 9816, 9814
2469, 1691, 3939, 3940, 1692, 9815, 9817, 9818, 5987
2470, 3939, 1606, 1605, 3940, 9816, 5733, 9819, 9817
2471, 1692, 3940, 3941, 1693, 9818, 9820, 9821, 5990
2472, 3940, 1605, 1604, 3941, 9819, 5736, 9822, 9820
2473, 1693, 3941, 3942, 1694, 9821, 9823, 9824, 5993
2474, 3941, 1604, 1603, 3942, 9822, 5739, 9825, 9823
2475, 1694, 3942, 3943, 1695, 9824, 9826, 9827, 5996
2476, 3942, 1603, 1602, 3943, 9825, 5742, 9828, 9826
2477, 1695, 3943, 2886,  355, 9827, 9829, 9830, 5999
2478, 3943, 1602,  273, 2886, 9828, 5744, 9831, 9829
2479,  923,  924,  921,  920, 9832, 9833, 9735, 9834
2480,  177, 2881, 3944, 1286, 9745, 9835, 9836, 4669
2481, 2881,  922, 2887, 3944, 9741, 9837, 9838, 9835
2482, 1286, 3944, 3945, 1287, 9836, 9839, 9840, 4672
2483, 3944, 2887, 2888, 3945, 9838, 9841, 9842, 9839
2484, 1287, 3945, 3946, 1288, 9840, 9843, 9844, 4675
2485, 3945, 2888, 2889, 3946, 9842, 9845, 9846, 9843
2486, 1288, 3946, 3947, 1289, 9844, 9847, 9848, 4678
2487, 3946, 2889, 2890, 3947, 9846, 9849, 9850, 9847
2488, 1289, 3947, 3948, 1290, 9848, 9851, 9852, 4681
2489, 3947, 2890, 2891, 3948, 9850, 9853, 9854, 9851
2490, 1290, 3948, 3949, 1291, 9852, 9855, 9856, 4684
2491, 3948, 2891, 2892, 3949, 9854, 9857, 9858, 9855
2492, 1291, 3949, 3950, 1292, 9856, 9859, 9860, 4687
2493, 3949, 2892, 2893, 3950, 9858, 9861, 9862, 9859
2494, 1292, 3950, 3951, 1293, 9860, 9863, 9864, 4690
2495, 3950, 2893, 2894, 3951, 9862, 9865, 9866, 9863
2496, 1293, 3951, 3952, 1294, 9864, 9867, 9868, 4693
2497, 3951, 2894, 2895, 3952, 9866, 9869, 9870, 9867
2498, 1294, 3952, 3953, 1295, 9868, 9871, 9872, 4696
2499, 3952, 2895, 2896, 3953, 9870, 9873, 9874, 9871
2500, 1295, 3953, 3954, 1296, 9872, 9875, 9876, 4699
2501, 3953, 2896, 2897, 3954, 9874, 9877, 9878, 9875
2502, 1296, 3954, 3955, 1297, 9876, 9879, 9880, 4702
2503, 3954, 2897, 2898, 3955, 9878, 9881, 9882, 9879
2504, 1297, 3955, 3956, 1298, 9880, 9883, 9884, 4705
2505, 3955, 2898, 2899, 3956, 9882, 9885, 9886, 9883
2506, 1298, 3956, 3957, 1299, 9884, 9887, 9888, 4708
2507, 3956, 2899, 2900, 3957, 9886, 9889, 9890, 9887
2508, 1299, 3957, 3958, 1300, 9888, 9891, 9892, 4711
2509, 3957, 2900, 2901, 3958, 9890, 9893, 9894, 9891
2510, 1300, 3958, 3959, 1301, 9892, 9895, 9896, 4714
2511, 3958, 2901, 2902, 3959, 9894, 9897, 9898, 9895
2512, 1301, 3959, 3960, 1302, 9896, 9899, 9900, 4717
2513, 3959, 2902, 2903, 3960, 9898, 9901, 9902, 9899
2514, 1302, 3960, 3961, 1303, 9900, 9903, 9904, 4720
2515, 3960, 2903, 2904, 3961, 9902, 9905, 9906, 9903
2516, 1303, 3961, 3962, 1304, 9904, 9907, 9908, 4723
2517, 3961, 2904, 2905, 3962, 9906, 9909, 9910, 9907
2518, 1304, 3962, 3963, 1305, 9908, 9911, 9912, 4726
2519, 3962, 2905, 2906, 3963, 9910, 9913, 9914, 9911
2520, 1305, 3963, 3964, 1306, 9912, 9915, 9916, 4729
2521, 3963, 2906, 2907, 3964, 9914, 9917, 9918, 9915
2522, 1306, 3964, 3965, 1307, 9916, 9919, 9920, 4732
2523, 3964, 2907, 2908, 3965, 9918, 9921, 9922, 9919
2524, 1307, 3965, 2909,  171, 9920, 9923, 9924, 4735
2525, 3965, 2908,  925, 2909, 9922, 9925, 9926, 9923
2526,  175, 2910, 2884,  169, 9927, 9928, 9751, 4666
2527, 2910,  277,  271, 2884, 9929, 5675, 9754, 9928
2528,  356, 2911, 2885,  357, 9930, 9931, 9759, 5927
2529, 2911,  923,  920, 2885, 9932, 9834, 9762, 9931
2530,  355, 2886, 2912,  356, 9830, 9933, 9934, 5926
2531, 2886,  273,  276, 2912, 9831, 5672, 9935, 9933
2532,  926,  927, 2913, 2914, 9936, 9937, 9938, 9939
2533, 2914, 2913,  924,  923, 9938, 9940, 9832, 9941
2534,  928, 2915, 2916,  931, 9942, 9943, 9944, 9945
2535, 2915,  929,  930, 2916, 9946, 9947, 9948, 9943
2536,  171, 2909, 2917,  172, 9924, 9949, 9950, 4662
2537, 2909,  925,  932, 2917, 9926, 9951, 9952, 9949
2538,  176, 2918, 3966, 2920, 9953, 9954, 9955, 9956
2539, 2918,  280, 2919, 3966, 9957, 9958, 9959, 9954
2540, 2920, 3966, 2910,  175, 9955, 9960, 9927, 9961
2541, 3966, 2919,  277, 2910, 9959, 9962, 9929, 9960
2542,  356, 2912, 3967, 2911, 9934, 9963, 9964, 9930
2543, 2912,  276, 2921, 3967, 9935, 9965, 9966, 9963
2544, 2911, 3967, 2914,  923, 9964, 9967, 9941, 9932
2545, 3967, 2921,  926, 2914, 9966, 9968, 9939, 9967
2546,  933,  934,  927,  926, 9969, 9970, 9936, 9971
2547,  928,  931,  935,  936, 9945, 9972, 9973, 9974
2548,  172, 2917, 3968, 2923, 9950, 9975, 9976, 9977
2549, 2917,  932, 2922, 3968, 9952, 9978, 9979, 9975
2550, 2923, 3968, 2915,  928, 9976, 9980, 9942, 9981
2551, 3968, 2922,  929, 2915, 9979, 9982, 9946, 9980
2552,   280,  2918,  3969,  1580,  9957,  9983,  9984,  5677
2553,  2918,   176,  1329,  3969,  9953,  4671,  9985,  9983
2554,  1580,  3969,  3970,  1581,  9984,  9986,  9987,  5680
2555,  3969,  1329,  1328,  3970,  9985,  4674,  9988,  9986
2556,  1581,  3970,  3971,  1582,  9987,  9989,  9990,  5683
2557,  3970,  1328,  1327,  3971,  9988,  4677,  9991,  9989
2558,  1582,  3971,  3972,  1583,  9990,  9992,  9993,  5686
2559,  3971,  1327,  1326,  3972,  9991,  4680,  9994,  9992
2560,  1583,  3972,  3973,  1584,  9993,  9995,  9996,  5689
2561,  3972,  1326,  1325,  3973,  9994,  4683,  9997,  9995
2562,  1584,  3973,  3974,  1585,  9996,  9998,  9999,  5692
2563,  3973,  1325,  1324,  3974,  9997,  4686, 10000,  9998
2564,  1585,  3974,  3975,  1586,  9999, 10001, 10002,  5695
2565,  3974,  1324,  1323,  3975, 10000,  4689, 10003, 10001
2566,  1586,  3975,  3976,  1587, 10002, 10004, 10005,  5698
2567,  3975,  1323,  1322,  3976, 10003,  4692, 10006, 10004
2568,  1587,  3976,  3977,  1588, 10005, 10007, 10008,  5701
2569,  3976,  1322,  1321,  3977, 10006,  4695, 10009, 10007
2570,  1588,  3977,  3978,  1589, 10008, 10010, 10011,  5704
2571,  3977,  1321,  1320,  3978, 10009,  4698, 10012, 10010
2572,  1589,  3978,  3979,  1590, 10011, 10013, 10014,  5707
2573,  3978,  1320,  1319,  3979, 10012,  4701, 10015, 10013
2574,  1590,  3979,  3980,  1591, 10014, 10016, 10017,  5710
2575,  3979,  1319,  1318,  3980, 10015,  4704, 10018, 10016
2576,  1591,  3980,  3981,  1592, 10017, 10019, 10020,  5713
2577,  3980,  1318,  1317,  3981, 10018,  4707, 10021, 10019
2578,  1592,  3981,  3982,  1593, 10020, 10022, 10023,  5716
2579,  3981,  1317,  1316,  3982, 10021,  4710, 10024, 10022
2580,  1593,  3982,  3983,  1594, 10023, 10025, 10026,  5719
2581,  3982,  1316,  1315,  3983, 10024,  4713, 10027, 10025
2582,  1594,  3983,  3984,  1595, 10026, 10028, 10029,  5722
2583,  3983,  1315,  1314,  3984, 10027,  4716, 10030, 10028
2584,  1595,  3984,  3985,  1596, 10029, 10031, 10032,  5725
2585,  3984,  1314,  1313,  3985, 10030,  4719, 10033, 10031
2586,  1596,  3985,  3986,  1597, 10032, 10034, 10035,  5728
2587,  3985,  1313,  1312,  3986, 10033,  4722, 10036, 10034
2588,  1597,  3986,  3987,  1598, 10035, 10037, 10038,  5731
2589,  3986,  1312,  1311,  3987, 10036,  4725, 10039, 10037
2590,  1598,  3987,  3988,  1599, 10038, 10040, 10041,  5734
2591,  3987,  1311,  1310,  3988, 10039,  4728, 10042, 10040
2592,  1599,  3988,  3989,  1600, 10041, 10043, 10044,  5737
2593,  3988,  1310,  1309,  3989, 10042,  4731, 10045, 10043
2594,  1600,  3989,  3990,  1601, 10044, 10046, 10047,  5740
2595,  3989,  1309,  1308,  3990, 10045,  4734, 10048, 10046
2596,  1601,  3990,  2924,   274, 10047, 10049, 10050,  5743
2597,  3990,  1308,   170,  2924, 10048,  4736, 10051, 10049
2598,   275,  2925,  2921,   276, 10052, 10053,  9965,  5671
2599,  2925,   933,   926,  2921, 10054,  9971,  9968, 10053
2600,   936,   935,  2926,  2927,  9973, 10055, 10056, 10057
2601,  2927,  2926,   934,   933, 10056, 10058,  9969, 10059
2602,   172,  2923,  2928,   173,  9977, 10060, 10061,  4663
2603,  2923,   928,   936,  2928,  9981,  9974, 10062, 10060
2604,   274,  2924,  2929,   275, 10050, 10063, 10064,  5670
2605,  2924,   170,   173,  2929, 10051,  4664, 10065, 10063
2606,    84,   790,   291,    85, 10066,  7740,  5775,  4471
2607,    88,   789,  2410,  1246, 10067,  7732, 10068,  4475
2608,  1246,  2410,   790,    84, 10068,  7736, 10066,  4478
2609,    90,   788,   789,    88, 10069,  7728, 10067,  4481
2610,    92,   787,  2407,  1248, 10070,  7720, 10071,  4484
2611,  1248,  2407,   788,    90, 10071,  7724, 10069,  4487
2612,    94,   786,   787,    92, 10072,  7716, 10070,  4490
2613,    96,   785,  2404,  1250, 10073,  7708, 10074,  4493
2614,  1250,  2404,   786,    94, 10074,  7712, 10072,  4496
2615,    98,   784,   785,    96, 10075,  7704, 10073,  4499
2616,   100,   783,  2401,  1252, 10076,  7696, 10077,  4502
2617,  1252,  2401,   784,    98, 10077,  7700, 10075,  4505
2618,   783,   100,   102,   782, 10076,  4509, 10078,  7693
2619,   104,   781,  2398,  1254, 10079,  7684, 10080,  4511
2620,  1254,  2398,   782,   102, 10080,  7688, 10078,  4514
2621,   781,   104,   106,   780, 10079,  4518, 10081,  7681
2622,   108,   779,   780,   106, 10082,  7676, 10081,  4521
2623,   108,   777,   778,   779, 10083,  7666,  7672, 10082
2624,   777,   108,   107,   775, 10083,  4520, 10084,  7663
2625,   775,   107,   110,   776, 10084,  4524, 10085,  7660
2626,   115,   776,   110,   112, 10086, 10085,  4527,  4544
2627,   117,     3,   776,   115, 10087,  7661, 10086,  4534
2628,   937,     4,  1114,  2930, 10088,  4161, 10089, 10090
2629,  2930,  1114,     3,   117, 10089,  4165, 10087, 10091
2630,   938,   830,  2529,  2931, 10092,  8210, 10093, 10094
2631,  2931,  2529,   827,   825, 10093,  8214,  8095, 10095
2632,   939,   819,  2474,  2936, 10096,  7973, 10097, 10098
2633,  2936,  2474,  2473,  2935, 10097,  7976, 10099, 10100
2634,  2935,  2473,  2472,  2934, 10099,  7979, 10101, 10102
2635,  2934,  2472,  2471,  2933, 10101,  7982, 10103, 10104
2636,  2933,  2471,  2470,  2932, 10103,  7985, 10105, 10106
2637,  2932,  2470,     4,   937, 10105,  7987, 10088, 10107
2638,   938,  2931,  2937,   940, 10094, 10108, 10109, 10110
2639,  2931,   825,   822,  2937, 10095,  8071, 10111, 10108
2640,   830,   938,   834,   832, 10092, 10112,  8241,  8221
2641,   791,   941,  2938,  2418, 10113, 10114, 10115,  7780
2642,  2418,  2938,  2939,  2419, 10115, 10116, 10117,  7784
2643,  2419,  2939,  2940,  2420, 10117, 10118, 10119,  7788
2644,  2420,  2940,  2941,  2421, 10119, 10120, 10121,  7792
2645,  2421,  2941,   284,   283, 10121, 10122,  5759,  7795
2646,   942,   823,  2477,  2942, 10123,  7994, 10124, 10125
2647,  2942,  2477,   819,   939, 10124,  7997, 10096, 10126
2648,   823,  2943,  2937,   822, 10127, 10128, 10111,  7995
2649,  2943,   943,   940,  2937, 10129, 10130, 10109, 10128
2650,   834,   938,   940,   836, 10112, 10110, 10131,  8249
2651,   941,   791,   792,   944, 10113,  7798, 10132, 10133
2652,   945,   943,  2943,  2944, 10134, 10129, 10135, 10136
2653,  2944,  2943,   823,   942, 10135, 10127, 10123, 10137
2654,   943,   838,   836,   940, 10138,  8257, 10131, 10130
2655,   793,   946,  2945,  2424, 10139, 10140, 10141,  7804
2656,  2424,  2945,   944,   792, 10141, 10142, 10132,  7807
2657,   838,   943,   945,   840, 10138, 10134, 10143,  8265
2658,   794,   947,   946,   793, 10144, 10145, 10139,  7811
2659,   840,   945,   948,   842, 10143, 10146, 10147,  8273
2660,   947,   794,  2427,  2946, 10144,  7814, 10148, 10149
2661,  2946,  2427,   795,   949, 10148,  7818, 10150, 10151
2662,   842,   948,   950,   844, 10147, 10152, 10153,  8281
2663,   949,   795,   796,   951, 10150,  7822, 10154, 10155
2664,   952,   846,   844,   950, 10156,  8289, 10153, 10157
2665,   797,   953,  2947,  2430, 10158, 10159, 10160,  7828
2666,  2430,  2947,   951,   796, 10160, 10161, 10154,  7831
2667,   846,   952,  2948,  2552, 10156, 10162, 10163,  8325
2668,  2552,  2948,   954,   847, 10163, 10164, 10165,  8329
2669,   953,   797,   798,   955, 10158,  7834, 10166, 10167
2670,   956,   849,   847,   954, 10168,  8346, 10165, 10169
2671,   955,   798,  2433,  2949, 10166,  7838, 10170, 10171
2672,  2949,  2433,   799,   957, 10170,  7842, 10172, 10173
2673,   958,   851,  2584,  2971, 10174,  8368, 10175, 10176
2674,  2971,  2584,  2583,  2970, 10175,  8373, 10177, 10178
2675,  2970,  2583,  2582,  2969, 10177,  8377, 10179, 10180
2676,  2969,  2582,  2581,  2968, 10179,  8381, 10181, 10182
2677,  2968,  2581,  2580,  2967, 10181,  8385, 10183, 10184
2678,  2967,  2580,  2579,  2966, 10183,  8389, 10185, 10186
2679,  2966,  2579,  2578,  2965, 10185,  8393, 10187, 10188
2680,  2965,  2578,  2577,  2964, 10187,  8397, 10189, 10190
2681,  2964,  2577,  2576,  2963, 10189,  8401, 10191, 10192
2682,  2963,  2576,  2575,  2962, 10191,  8405, 10193, 10194
2683,  2962,  2575,  2574,  2961, 10193,  8409, 10195, 10196
2684,  2961,  2574,  2573,  2960, 10195,  8413, 10197, 10198
2685,  2960,  2573,  2572,  2959, 10197,  8417, 10199, 10200
2686,  2959,  2572,  2571,  2958, 10199,  8421, 10201, 10202
2687,  2958,  2571,  2570,  2957, 10201,  8425, 10203, 10204
2688,  2957,  2570,  2569,  2956, 10203,  8429, 10205, 10206
2689,  2956,  2569,  2568,  2955, 10205,  8433, 10207, 10208
2690,  2955,  2568,  2567,  2954, 10207,  8437, 10209, 10210
2691,  2954,  2567,  2566,  2953, 10209,  8441, 10211, 10212
2692,  2953,  2566,  2565,  2952, 10211,  8445, 10213, 10214
2693,  2952,  2565,  2564,  2951, 10213,  8449, 10215, 10216
2694,  2951,  2564,  2563,  2950, 10215,  8453, 10217, 10218
2695,  2950,  2563,   849,   956, 10217,  8456, 10168, 10219
2696,   800,   959,   957,   799, 10220, 10221, 10172,  7847
2697,   960,   853,  2612,  2972, 10222,  8562, 10223, 10224
2698,  2972,  2612,   851,   958, 10223,  8566, 10174, 10225
2699,   801,   961,  2973,  2436, 10226, 10227, 10228,  7852
2700,  2436,  2973,  2974,  2437, 10228, 10229, 10230,  7856
2701,  2437,  2974,  2975,  2438, 10230, 10231, 10232,  7860
2702,  2438,  2975,  2976,  2439, 10232, 10233, 10234,  7864
2703,  2439,  2976,  2977,  2440, 10234, 10235, 10236,  7868
2704,  2440,  2977,  2978,  2441, 10236, 10237, 10238,  7872
2705,  2441,  2978,  2979,  2442, 10238, 10239, 10240,  7876
2706,  2442,  2979,  2980,  2443, 10240, 10241, 10242,  7880
2707,  2443,  2980,  2981,  2444, 10242, 10243, 10244,  7884
2708,  2444,  2981,   959,   800, 10244, 10245, 10220,  7887
2709,   962,   855,   853,   960, 10246,  8612, 10222, 10247
2710,   802,   963,   961,   801, 10248, 10249, 10226,  7891
2711,   964,   857,  2645,  2982, 10250,  8711, 10251, 10252
2712,  2982,  2645,   855,   962, 10251,  8715, 10246, 10253
2713,   803,   965,  2983,  2447, 10254, 10255, 10256,  7896
2714,  2447,  2983,   963,   802, 10256, 10257, 10248,  7899
2715,   966,   863,   857,   964, 10258,  8744, 10250, 10259
2716,   804,   967,   965,   803, 10260, 10261, 10254,  7903
2717,   968,   866,  2659,  2984, 10262,  8772, 10263, 10264
2718,  2984,  2659,   863,   966, 10263,  8776, 10258, 10265
2719,   805,   969,   967,   804, 10266, 10267, 10260,  7907
2720,   968,   874,   869,   866, 10268,  8905,  8826, 10262
2721,   806,   970,   969,   805, 10269, 10270, 10266,  7911
2722,   971,   876,  2703,  2985, 10271,  8936, 10272, 10273
2723,  2985,  2703,   874,   968, 10272,  8940, 10268, 10274
2724,   970,   806,   807,   972, 10269,  7914, 10275, 10276
2725,   876,   971,  2986,  2708, 10271, 10277, 10278,  8971
2726,  2708,  2986,   973,   878, 10278, 10279, 10280,  8975
2727,   972,   807,   808,   974, 10275,  7918, 10281, 10282
2728,   878,   973,  2987,  2733, 10280, 10283, 10284,  9077
2729,  2733,  2987,  2988,  2734, 10284, 10285, 10286,  9081
2730,  2734,  2988,  2989,  2735, 10286, 10287, 10288,  9085
2731,  2735,  2989,  2990,  2736, 10288, 10289, 10290,  9089
2732,  2736,  2990,  2991,  2737, 10290, 10291, 10292,  9093
2733,  2737,  2991,   975,   880, 10292, 10293, 10294,  9097
2734,   809,   976,   974,   808, 10295, 10296, 10281,  7923
2735,   880,   975,  2992,  2744, 10294, 10297, 10298,  9118
2736,  2744,  2992,   977,   882, 10298, 10299, 10300,  9122
2737,   976,   809,   810,   811, 10295,  7926,  7937, 10301
2738,   882,   977,   978,   884, 10300, 10302, 10303,  9145
2739,   976,   811,   812,   979, 10301,  7940, 10304, 10305
2740,   884,   978,   980,   885, 10303, 10306, 10307,  9164
2741,   979,   812,   813,   981, 10304,  7944, 10308, 10309
2742,   885,   980,   982,   887, 10307, 10310, 10311,  9187
2743,   981,   813,   814,   983, 10308,  7948, 10312, 10313
2744,   984,   889,   887,   982, 10314,  9211, 10311, 10315
2745,   815,   985,   983,   814, 10316, 10317, 10312,  7953
2746,   986,   891,  2772,  2993, 10318,  9236, 10319, 10320
2747,  2993,  2772,   889,   984, 10319,  9240, 10314, 10321
2748,   985,   815,   816,   987, 10316,  7956, 10322, 10323
2749,   988,   893,   891,   986, 10324,  9263, 10318, 10325
2750,   987,   816,   817,   989, 10322,  7960, 10326, 10327
2751,   990,   895,  2784,  2994, 10328,  9287, 10329, 10330
2752,  2994,  2784,   893,   988, 10329,  9291, 10324, 10331
2753,   818,   991,  2995,  2464, 10332, 10333, 10334,  7966
2754,  2464,  2995,   989,   817, 10334, 10335, 10326,  7969
2755,   992,   896,   895,   990, 10336,  9312, 10328, 10337
2756,   821,   993,   991,   818, 10338, 10339, 10332,  7991
2757,   994,   898,  2795,  2996, 10340,  9336, 10341, 10342
2758,  2996,  2795,   896,   992, 10341,  9340, 10336, 10343
2759,   824,   995,  2997,  2479, 10344, 10345, 10346,  8009
2760,  2479,  2997,  2998,  2480, 10346, 10347, 10348,  8013
2761,  2480,  2998,  2999,  2481, 10348, 10349, 10350,  8017
2762,  2481,  2999,  3000,  2482, 10350, 10351, 10352,  8021
2763,  2482,  3000,  3001,  2483, 10352, 10353, 10354,  8025
2764,  2483,  3001,  3002,  2484, 10354, 10355, 10356,  8029
2765,  2484,  3002,  3003,  2485, 10356, 10357, 10358,  8033
2766,  2485,  3003,  3004,  2486, 10358, 10359, 10360,  8037
2767,  2486,  3004,  3005,  2487, 10360, 10361, 10362,  8041
2768,  2487,  3005,  3006,  2488, 10362, 10363, 10364,  8045
2769,  2488,  3006,  3007,  2489, 10364, 10365, 10366,  8049
2770,  2489,  3007,  3008,  2490, 10366, 10367, 10368,  8053
2771,  2490,  3008,  3009,  2491, 10368, 10369, 10370,  8057
2772,  2491,  3009,  3010,  2492, 10370, 10371, 10372,  8061
2773,  2492,  3010,  3011,  2493, 10372, 10373, 10374,  8065
2774,  2493,  3011,   993,   821, 10374, 10375, 10338,  8068
2775,   994,   907,   900,   898, 10376,  9491,  9363, 10340
2776,   995,   824,  2499,  3015, 10344,  8075, 10377, 10378
2777,  3015,  2499,  2498,  3014, 10377,  8079, 10379, 10380
2778,  3014,  2498,  2497,  3013, 10379,  8083, 10381, 10382
2779,  3013,  2497,  2496,  3012, 10381,  8087, 10383, 10384
2780,  3012,  2496,   826,   996, 10383,  8091, 10385, 10386
2781,   997,   910,  2839,  3016, 10387,  9522, 10388, 10389
2782,  3016,  2839,   907,   994, 10388,  9526, 10376, 10390
2783,   996,   826,  2524,  3039, 10385,  8099, 10391, 10392
2784,  3039,  2524,  2523,  3038, 10391,  8103, 10393, 10394
2785,  3038,  2523,  2522,  3037, 10393,  8107, 10395, 10396
2786,  3037,  2522,  2521,  3036, 10395,  8111, 10397, 10398
2787,  3036,  2521,  2520,  3035, 10397,  8115, 10399, 10400
2788,  3035,  2520,  2519,  3034, 10399,  8119, 10401, 10402
2789,  3034,  2519,  2518,  3033, 10401,  8123, 10403, 10404
2790,  3033,  2518,  2517,  3032, 10403,  8127, 10405, 10406
2791,  3032,  2517,  2516,  3031, 10405,  8131, 10407, 10408
2792,  3031,  2516,  2515,  3030, 10407,  8135, 10409, 10410
2793,  3030,  2515,  2514,  3029, 10409,  8139, 10411, 10412
2794,  3029,  2514,  2513,  3028, 10411,  8143, 10413, 10414
2795,  3028,  2513,  2512,  3027, 10413,  8147, 10415, 10416
2796,  3027,  2512,  2511,  3026, 10415,  8151, 10417, 10418
2797,  3026,  2511,  2510,  3025, 10417,  8155, 10419, 10420
2798,  3025,  2510,  2509,  3024, 10419,  8159, 10421, 10422
2799,  3024,  2509,  2508,  3023, 10421,  8163, 10423, 10424
2800,  3023,  2508,  2507,  3022, 10423,  8167, 10425, 10426
2801,  3022,  2507,  2506,  3021, 10425,  8171, 10427, 10428
2802,  3021,  2506,  2505,  3020, 10427,  8175, 10429, 10430
2803,  3020,  2505,  2504,  3019, 10429,  8179, 10431, 10432
2804,  3019,  2504,  2503,  3018, 10431,  8183, 10433, 10434
2805,  3018,  2503,  2502,  3017, 10433,  8187, 10435, 10436
2806,  3017,  2502,   828,   998, 10435,  8191, 10437, 10438
2807,   999,   913,   910,   997, 10439,  9559, 10387, 10440
2808,   829,  1000,  3040,  2527, 10441, 10442, 10443,  8203
2809,  2527,  3040,   998,   828, 10443, 10444, 10437,  8206
2810,  1001,   916,  2867,  3041, 10445,  9611, 10446, 10447
2811,  3041,  2867,   913,   999, 10446,  9615, 10439, 10448
2812,   833,  1000,   829,   831, 10449, 10441,  8218,  8237
2813,  1002,   919,   916,  1001, 10450,  9714, 10445, 10451
2814,  1000,   833,   835,  1003, 10449,  8245, 10452, 10453
2815,  1004,   922,  2883,  3042, 10454,  9744, 10455, 10456
2816,  3042,  2883,   919,  1002, 10455,  9749, 10450, 10457
2817,  1003,   835,   837,  1005, 10452,  8253, 10458, 10459
2818,   922,  1004,  3043,  2887, 10454, 10460, 10461,  9837
2819,  2887,  3043,  3044,  2888, 10461, 10462, 10463,  9841
2820,  2888,  3044,  3045,  2889, 10463, 10464, 10465,  9845
2821,  2889,  3045,  3046,  2890, 10465, 10466, 10467,  9849
2822,  2890,  3046,  3047,  2891, 10467, 10468, 10469,  9853
2823,  2891,  3047,  3048,  2892, 10469, 10470, 10471,  9857
2824,  2892,  3048,  3049,  2893, 10471, 10472, 10473,  9861
2825,  2893,  3049,  3050,  2894, 10473, 10474, 10475,  9865
2826,  2894,  3050,  3051,  2895, 10475, 10476, 10477,  9869
2827,  2895,  3051,  3052,  2896, 10477, 10478, 10479,  9873
2828,  2896,  3052,  3053,  2897, 10479, 10480, 10481,  9877
2829,  2897,  3053,  3054,  2898, 10481, 10482, 10483,  9881
2830,  2898,  3054,  3055,  2899, 10483, 10484, 10485,  9885
2831,  2899,  3055,  3056,  2900, 10485, 10486, 10487,  9889
2832,  2900,  3056,  3057,  2901, 10487, 10488, 10489,  9893
2833,  2901,  3057,  3058,  2902, 10489, 10490, 10491,  9897
2834,  2902,  3058,  3059,  2903, 10491, 10492, 10493,  9901
2835,  2903,  3059,  3060,  2904, 10493, 10494, 10495,  9905
2836,  2904,  3060,  3061,  2905, 10495, 10496, 10497,  9909
2837,  2905,  3061,  3062,  2906, 10497, 10498, 10499,  9913
2838,  2906,  3062,  3063,  2907, 10499, 10500, 10501,  9917
2839,  2907,  3063,  3064,  2908, 10501, 10502, 10503,  9921
2840,  2908,  3064,  1006,   925, 10503, 10504, 10505,  9925
2841,   839,  1007,  1005,   837, 10506, 10507, 10458,  8262
2842,   925,  1006,  1008,   932, 10505, 10508, 10509,  9951
2843,  1007,   839,   841,  1009, 10506,  8269, 10510, 10511
2844,   932,  1008,  3065,  2922, 10509, 10512, 10513,  9978
2845,  2922,  3065,  1010,   929, 10513, 10514, 10515,  9982
2846,  1009,   841,   843,  1011, 10510,  8277, 10516, 10517
2847,  1012,   930,   929,  1010, 10518,  9947, 10515, 10519
2848,  1011,   843,   845,   848, 10516,  8285,  8340, 10520
2849,   930,  1012,  1013,  1014, 10518, 10521, 10522, 10523
2850,   850,  1015,  3066,  2560, 10524, 10525, 10526,  8358
2851,  2560,  3066,  1011,   848, 10526, 10527, 10520,  8361
2852,   930,  1014,  3067,  2916, 10523, 10528, 10529,  9948
2853,  2916,  3067,  1016,   931, 10529, 10530, 10531,  9944
2854,  1015,   850,  2609,  3090, 10524,  8462, 10532, 10533
2855,  3090,  2609,  2608,  3089, 10532,  8466, 10534, 10535
2856,  3089,  2608,  2607,  3088, 10534,  8470, 10536, 10537
2857,  3088,  2607,  2606,  3087, 10536,  8474, 10538, 10539
2858,  3087,  2606,  2605,  3086, 10538,  8478, 10540, 10541
2859,  3086,  2605,  2604,  3085, 10540,  8482, 10542, 10543
2860,  3085,  2604,  2603,  3084, 10542,  8486, 10544, 10545
2861,  3084,  2603,  2602,  3083, 10544,  8490, 10546, 10547
2862,  3083,  2602,  2601,  3082, 10546,  8494, 10548, 10549
2863,  3082,  2601,  2600,  3081, 10548,  8498, 10550, 10551
2864,  3081,  2600,  2599,  3080, 10550,  8502, 10552, 10553
2865,  3080,  2599,  2598,  3079, 10552,  8506, 10554, 10555
2866,  3079,  2598,  2597,  3078, 10554,  8510, 10556, 10557
2867,  3078,  2597,  2596,  3077, 10556,  8514, 10558, 10559
2868,  3077,  2596,  2595,  3076, 10558,  8518, 10560, 10561
2869,  3076,  2595,  2594,  3075, 10560,  8522, 10562, 10563
2870,  3075,  2594,  2593,  3074, 10562,  8526, 10564, 10565
2871,  3074,  2593,  2592,  3073, 10564,  8530, 10566, 10567
2872,  3073,  2592,  2591,  3072, 10566,  8534, 10568, 10569
2873,  3072,  2591,  2590,  3071, 10568,  8538, 10570, 10571
2874,  3071,  2590,  2589,  3070, 10570,  8542, 10572, 10573
2875,  3070,  2589,  2588,  3069, 10572,  8546, 10574, 10575
2876,  3069,  2588,  2587,  3068, 10574,  8550, 10576, 10577
2877,  3068,  2587,   852,  1017, 10576,  8554, 10578, 10579
2878,   931,  1016,  1018,   935, 10531, 10580, 10581,  9972
2879,  1017,   852,  2620,  3094, 10578,  8583, 10582, 10583
2880,  3094,  2620,  2619,  3093, 10582,  8587, 10584, 10585
2881,  3093,  2619,  2618,  3092, 10584,  8591, 10586, 10587
2882,  3092,  2618,  2617,  3091, 10586,  8595, 10588, 10589
2883,  3091,  2617,   854,  1019, 10588,  8599, 10590, 10591
2884,   935,  1018,  3095,  2926, 10581, 10592, 10593, 10055
2885,  2926,  3095,  1020,   934, 10593, 10594, 10595, 10058
2886,  1019,   854,  2641,  3110, 10590,  8622, 10596, 10597
2887,  3110,  2641,  2640,  3109, 10596,  8626, 10598, 10599
2888,  3109,  2640,  2639,  3108, 10598,  8630, 10600, 10601
2889,  3108,  2639,  2638,  3107, 10600,  8634, 10602, 10603
2890,  3107,  2638,  2637,  3106, 10602,  8638, 10604, 10605
2891,  3106,  2637,  2636,  3105, 10604,  8642, 10606, 10607
2892,  3105,  2636,  2635,  3104, 10606,  8646, 10608, 10609
2893,  3104,  2635,  2634,  3103, 10608,  8650, 10610, 10611
2894,  3103,  2634,  2633,  3102, 10610,  8654, 10612, 10613
2895,  3102,  2633,  2632,  3101, 10612,  8658, 10614, 10615
2896,  3101,  2632,  2631,  3100, 10614,  8662, 10616, 10617
2897,  3100,  2631,  2630,  3099, 10616,  8666, 10618, 10619
2898,  3099,  2630,  2629,  3098, 10618,  8670, 10620, 10621
2899,  3098,  2629,  2628,  3097, 10620,  8674, 10622, 10623
2900,  3097,  2628,  2627,  3096, 10622,  8678, 10624, 10625
2901,  3096,  2627,   856,  1021, 10624,  8682, 10626, 10627
2902,   934,  1020,  1022,   927, 10595, 10628, 10629,  9970
2903,  1021,   856,   858,  1023, 10626,  8724, 10630, 10631
2904,   927,  1022,  3111,  2913, 10629, 10632, 10633,  9937
2905,  2913,  3111,  1024,   924, 10633, 10634, 10635,  9940
2906,  1023,   858,  2655,  3112, 10630,  8751, 10636, 10637
2907,  3112,  2655,   862,  1025, 10636,  8755, 10638, 10639
2908,   924,  1024,  1026,   921, 10635, 10640, 10641,  9833
2909,   861,  1027,  1025,   862, 10642, 10643, 10638,  8731
2910,   921,  1026,  3113,  2879, 10641, 10644, 10645,  9736
2911,  2879,  3113,  1028,   918, 10645, 10646, 10647,  9739
2912,  1027,   861,  1029,  1030, 10642, 10648, 10649, 10650
2913,   918,  1028,  1031,   915, 10647, 10651, 10652,  9710
2914,  1029,   861,  2648,  3114, 10648,  8730, 10653, 10654
2915,  3114,  2648,   860,  1032, 10653,  8727, 10655, 10656
2916,   915,  1031,  3115,  2858, 10652, 10657, 10658,  9594
2917,  2858,  3115,  3116,  2859, 10658, 10659, 10660,  9597
2918,  2859,  3116,  3117,  2860, 10660, 10661, 10662,  9600
2919,  2860,  3117,  3118,  2861, 10662, 10663, 10664,  9603
2920,  2861,  3118,  1033,   912, 10664, 10665, 10666,  9606
2921,  1032,   860,   865,  1034, 10655,  8759, 10667, 10668
2922,   912,  1033,  3119,  2844, 10666, 10669, 10670,  9543
2923,  2844,  3119,  3120,  2845, 10670, 10671, 10672,  9546
2924,  2845,  3120,  3121,  2846, 10672, 10673, 10674,  9549
2925,  2846,  3121,  3122,  2847, 10674, 10675, 10676,  9552
2926,  2847,  3122,  1035,   909, 10676, 10677, 10678,  9555
2927,  1034,   865,  2680,  3131, 10667,  8790, 10679, 10680
2928,  3131,  2680,  2679,  3130, 10679,  8793, 10681, 10682
2929,  3130,  2679,  2678,  3129, 10681,  8796, 10683, 10684
2930,  3129,  2678,  2677,  3128, 10683,  8799, 10685, 10686
2931,  3128,  2677,  2676,  3127, 10685,  8802, 10687, 10688
2932,  3127,  2676,  2675,  3126, 10687,  8805, 10689, 10690
2933,  3126,  2675,  2674,  3125, 10689,  8808, 10691, 10692
2934,  3125,  2674,  2673,  3124, 10691,  8811, 10693, 10694
2935,  3124,  2673,  2672,  3123, 10693,  8814, 10695, 10696
2936,  3123,  2672,   868,  1036, 10695,  8817, 10697, 10698
2937,   909,  1035,  1037,   905, 10678, 10699, 10700,  9517
2938,  1036,   868,   871,  1038, 10697,  8866, 10701, 10702
2939,  1039,   906,  2831,  3132, 10703,  9484, 10704, 10705
2940,  3132,  2831,   905,  1037, 10704,  9488, 10700, 10706
2941,   873,  1040,  3133,  2693, 10707, 10708, 10709,  8896
2942,  2693,  3133,  1038,   871, 10709, 10710, 10701,  8893
2943,  1041,   906,  1039,  1042, 10711, 10703, 10712, 10713
2944,   873,  1043,  1044,  1040, 10714, 10715, 10716, 10707
2945,   906,  1041,  1045,   903, 10711, 10717, 10718,  9485
2946,  1043,   873,   872,  1046, 10714,  8895, 10719, 10720
2947,   903,  1045,  3134,  2834, 10718, 10721, 10722,  9499
2948,  2834,  3134,  1047,   902, 10722, 10723, 10724,  9503
2949,  1046,   872,  2699,  3135, 10719,  8915, 10725, 10726
2950,  3135,  2699,   875,  1048, 10725,  8919, 10727, 10728
2951,  1049,   901,   902,  1047, 10729,  9474, 10724, 10730
2952,   877,  1050,  1048,   875, 10731, 10732, 10727,  8962
2953,   901,  1049,  3136,  2804, 10729, 10733, 10734,  9372
2954,  2804,  3136,  3137,  2805, 10734, 10735, 10736,  9376
2955,  2805,  3137,  3138,  2806, 10736, 10737, 10738,  9380
2956,  2806,  3138,  3139,  2807, 10738, 10739, 10740,  9384
2957,  2807,  3139,  3140,  2808, 10740, 10741, 10742,  9388
2958,  2808,  3140,  3141,  2809, 10742, 10743, 10744,  9392
2959,  2809,  3141,  3142,  2810, 10744, 10745, 10746,  9396
2960,  2810,  3142,  3143,  2811, 10746, 10747, 10748,  9400
2961,  2811,  3143,  3144,  2812, 10748, 10749, 10750,  9404
2962,  2812,  3144,  3145,  2813, 10750, 10751, 10752,  9408
2963,  2813,  3145,  3146,  2814, 10752, 10753, 10754,  9412
2964,  2814,  3146,  3147,  2815, 10754, 10755, 10756,  9416
2965,  2815,  3147,  3148,  2816, 10756, 10757, 10758,  9420
2966,  2816,  3148,  3149,  2817, 10758, 10759, 10760,  9424
2967,  2817,  3149,  3150,  2818, 10760, 10761, 10762,  9428
2968,  2818,  3150,  3151,  2819, 10762, 10763, 10764,  9432
2969,  2819,  3151,  3152,  2820, 10764, 10765, 10766,  9436
2970,  2820,  3152,  3153,  2821, 10766, 10767, 10768,  9440
2971,  2821,  3153,  3154,  2822, 10768, 10769, 10770,  9444
2972,  2822,  3154,  1051,   899, 10770, 10771, 10772,  9447
2973,   879,  1052,  3155,  2712, 10773, 10774, 10775,  8987
2974,  2712,  3155,  3156,  2713, 10775, 10776, 10777,  8991
2975,  2713,  3156,  3157,  2714, 10777, 10778, 10779,  8995
2976,  2714,  3157,  3158,  2715, 10779, 10780, 10781,  8999
2977,  2715,  3158,  3159,  2716, 10781, 10782, 10783,  9003
2978,  2716,  3159,  3160,  2717, 10783, 10784, 10785,  9007
2979,  2717,  3160,  3161,  2718, 10785, 10786, 10787,  9011
2980,  2718,  3161,  3162,  2719, 10787, 10788, 10789,  9015
2981,  2719,  3162,  3163,  2720, 10789, 10790, 10791,  9019
2982,  2720,  3163,  3164,  2721, 10791, 10792, 10793,  9023
2983,  2721,  3164,  3165,  2722, 10793, 10794, 10795,  9027
2984,  2722,  3165,  3166,  2723, 10795, 10796, 10797,  9031
2985,  2723,  3166,  3167,  2724, 10797, 10798, 10799,  9035
2986,  2724,  3167,  3168,  2725, 10799, 10800, 10801,  9039
2987,  2725,  3168,  3169,  2726, 10801, 10802, 10803,  9043
2988,  2726,  3169,  3170,  2727, 10803, 10804, 10805,  9047
2989,  2727,  3170,  3171,  2728, 10805, 10806, 10807,  9051
2990,  2728,  3171,  3172,  2729, 10807, 10808, 10809,  9055
2991,  2729,  3172,  3173,  2730, 10809, 10810, 10811,  9059
2992,  2730,  3173,  1050,   877, 10811, 10812, 10731,  9062
2993,  1053,   897,  2798,  3174, 10813,  9349, 10814, 10815
2994,  3174,  2798,   899,  1051, 10814,  9353, 10772, 10816
2995,  1052,   879,  2741,  3175, 10773,  9104, 10817, 10818
2996,  3175,  2741,   881,  1054, 10817,  9108, 10819, 10820
2997,  1053,   892,   894,   897, 10821,  9270,  9320, 10813
2998,   886,  1054,   881,   883, 10822, 10819,  9130,  9171
2999,   892,  1053,  3176,  2775, 10821, 10823, 10824,  9251
3000,  2775,  3176,  1055,   890, 10824, 10825, 10826,  9254
3001,   888,  1056,  3177,  2763, 10827, 10828, 10829,  9199
3002,  2763,  3177,  1054,   886, 10829, 10830, 10822,  9202
3003,   941,   376,  1775,  2938, 10831,  6107, 10832, 10114
3004,  2938,  1775,  1774,  2939, 10832,  6110, 10833, 10116
3005,  2939,  1774,  1773,  2940, 10833,  6113, 10834, 10118
3006,  2940,  1773,  1772,  2941, 10834,  6116, 10835, 10120
3007,  2941,  1772,   363,   284, 10835,  6118,  6010, 10122
3008,   376,   941,   944,   380, 10831, 10133, 10836,  6122
3009,   946,   384,  1779,  2945, 10837,  6134, 10838, 10140
3010,  2945,  1779,   380,   944, 10838,  6136, 10836, 10142
3011,   947,   388,   384,   946, 10839,  6142, 10837, 10145
3012,   388,   947,  2946,  1780, 10839, 10149, 10840,  6146
3013,  1780,  2946,   949,   392, 10840, 10151, 10841,  6149
3014,   392,   949,   951,   397, 10841, 10155, 10842,  6158
3015,   953,   398,  1783,  2947, 10843,  6163, 10844, 10159
3016,  2947,  1783,   397,   951, 10844,  6165, 10842, 10161
3017,   398,   953,   955,   400, 10843, 10167, 10845,  6166
3018,   400,   955,  2949,  1784, 10845, 10171, 10846,  6169
3019,  1784,  2949,   957,   402, 10846, 10173, 10847,  6172
3020,   959,   408,   402,   957, 10848,  6226, 10847, 10221
3021,   961,   412,  1833,  2973, 10849,  6233, 10850, 10227
3022,  2973,  1833,  1832,  2974, 10850,  6236, 10851, 10229
3023,  2974,  1832,  1831,  2975, 10851,  6239, 10852, 10231
3024,  2975,  1831,  1830,  2976, 10852,  6242, 10853, 10233
3025,  2976,  1830,  1829,  2977, 10853,  6245, 10854, 10235
3026,  2977,  1829,  1828,  2978, 10854,  6248, 10855, 10237
3027,  2978,  1828,  1827,  2979, 10855,  6251, 10856, 10239
3028,  2979,  1827,  1826,  2980, 10856,  6254, 10857, 10241
3029,  2980,  1826,  1825,  2981, 10857,  6257, 10858, 10243
3030,  2981,  1825,   408,   959, 10858,  6259, 10848, 10245
3031,   963,   416,   412,   961, 10859,  6268, 10849, 10249
3032,   965,   420,  1837,  2983, 10860,  6275, 10861, 10255
3033,  2983,  1837,   416,   963, 10861,  6277, 10859, 10257
3034,   967,   424,   420,   965, 10862,  6283, 10860, 10261
3035,   969,   428,   424,   967, 10863,  6289, 10862, 10267
3036,   970,   432,   428,   969, 10864,  6295, 10863, 10270
3037,   432,   970,   972,  1057, 10864, 10276, 10865, 10866
3038,  1057,   972,   974,  1058, 10865, 10282, 10867, 10868
3039,   979,  1058,   974,   976, 10869, 10867, 10296, 10305
3040,  1057,  1058,  1059,   431, 10868, 10870, 10871, 10872
3041,  1058,   979,   981,  1059, 10869, 10309, 10873, 10870
3042,   431,  1059,  1060,   427, 10871, 10874, 10875,  6291
3043,  1059,   981,   983,  1060, 10873, 10313, 10876, 10874
3044,  1061,   423,   427,  1060, 10877,  6286, 10875, 10878
3045,   985,  1061,  1060,   983, 10879, 10878, 10876, 10317
3046,  1062,   419,   423,  1061, 10880,  6280, 10877, 10881
3047,  1061,   985,   987,  1062, 10879, 10323, 10882, 10881
3048,   419,  1062,  1063,   415, 10880, 10883, 10884,  6270
3049,  1062,   987,   989,  1063, 10882, 10327, 10885, 10883
3050,  1064,   411,  1835,  3178, 10886,  6262, 10887, 10888
3051,  3178,  1835,   415,  1063, 10887,  6265, 10884, 10889
3052,   991,  1064,  3178,  2995, 10890, 10888, 10891, 10333
3053,  2995,  3178,  1063,   989, 10891, 10889, 10885, 10335
3054,  1065,   405,   411,  1064, 10892,  6229, 10886, 10893
3055,   993,  1065,  1064,   991, 10894, 10893, 10890, 10339
3056,  1065,  3179,  1786,   405, 10895, 10896,  6176, 10892
3057,  3179,  3180,  1787,  1786, 10897, 10898,  6179, 10896
3058,  3180,  3181,  1788,  1787, 10899, 10900,  6182, 10898
3059,  3181,  3182,  1789,  1788, 10901, 10902,  6185, 10900
3060,  3182,  3183,  1790,  1789, 10903, 10904,  6188, 10902
3061,  3183,  3184,  1791,  1790, 10905, 10906,  6191, 10904
3062,  3184,  3185,  1792,  1791, 10907, 10908,  6194, 10906
3063,  3185,  3186,  1793,  1792, 10909, 10910,  6197, 10908
3064,  3186,  3187,  1794,  1793, 10911, 10912,  6200, 10910
3065,  3187,  3188,  1795,  1794, 10913, 10914,  6203, 10912
3066,  3188,  3189,  1796,  1795, 10915, 10916,  6206, 10914
3067,  3189,  3190,  1797,  1796, 10917, 10918,  6209, 10916
3068,  3190,  3191,  1798,  1797, 10919, 10920,  6212, 10918
3069,  3191,  3192,  1799,  1798, 10921, 10922,  6215, 10920
3070,  3192,  3193,  1800,  1799, 10923, 10924,  6218, 10922
3071,  3193,  1066,   406,  1800, 10925, 10926,  6221, 10924
3072,   995,  1066,  3193,  2997, 10927, 10925, 10928, 10345
3073,  2997,  3193,  3192,  2998, 10928, 10923, 10929, 10347
3074,  2998,  3192,  3191,  2999, 10929, 10921, 10930, 10349
3075,  2999,  3191,  3190,  3000, 10930, 10919, 10931, 10351
3076,  3000,  3190,  3189,  3001, 10931, 10917, 10932, 10353
3077,  3001,  3189,  3188,  3002, 10932, 10915, 10933, 10355
3078,  3002,  3188,  3187,  3003, 10933, 10913, 10934, 10357
3079,  3003,  3187,  3186,  3004, 10934, 10911, 10935, 10359
3080,  3004,  3186,  3185,  3005, 10935, 10909, 10936, 10361
3081,  3005,  3185,  3184,  3006, 10936, 10907, 10937, 10363
3082,  3006,  3184,  3183,  3007, 10937, 10905, 10938, 10365
3083,  3007,  3183,  3182,  3008, 10938, 10903, 10939, 10367
3084,  3008,  3182,  3181,  3009, 10939, 10901, 10940, 10369
3085,  3009,  3181,  3180,  3010, 10940, 10899, 10941, 10371
3086,  3010,  3180,  3179,  3011, 10941, 10897, 10942, 10373
3087,  3011,  3179,  1065,   993, 10942, 10895, 10894, 10375
3088,  1066,   995,  3015,  3197, 10927, 10378, 10943, 10944
3089,  3197,  3015,  3014,  3196, 10943, 10380, 10945, 10946
3090,  3196,  3014,  3013,  3195, 10945, 10382, 10947, 10948
3091,  3195,  3013,  3012,  3194, 10947, 10384, 10949, 10950
3092,  3194,  3012,   996,  1067, 10949, 10386, 10951, 10952
3093,  1067,   996,  3039,  3220, 10951, 10392, 10953, 10954
3094,  3220,  3039,  3038,  3219, 10953, 10394, 10955, 10956
3095,  3219,  3038,  3037,  3218, 10955, 10396, 10957, 10958
3096,  3218,  3037,  3036,  3217, 10957, 10398, 10959, 10960
3097,  3217,  3036,  3035,  3216, 10959, 10400, 10961, 10962
3098,  3216,  3035,  3034,  3215, 10961, 10402, 10963, 10964
3099,  3215,  3034,  3033,  3214, 10963, 10404, 10965, 10966
3100,  3214,  3033,  3032,  3213, 10965, 10406, 10967, 10968
3101,  3213,  3032,  3031,  3212, 10967, 10408, 10969, 10970
3102,  3212,  3031,  3030,  3211, 10969, 10410, 10971, 10972
3103,  3211,  3030,  3029,  3210, 10971, 10412, 10973, 10974
3104,  3210,  3029,  3028,  3209, 10973, 10414, 10975, 10976
3105,  3209,  3028,  3027,  3208, 10975, 10416, 10977, 10978
3106,  3208,  3027,  3026,  3207, 10977, 10418, 10979, 10980
3107,  3207,  3026,  3025,  3206, 10979, 10420, 10981, 10982
3108,  3206,  3025,  3024,  3205, 10981, 10422, 10983, 10984
3109,  3205,  3024,  3023,  3204, 10983, 10424, 10985, 10986
3110,  3204,  3023,  3022,  3203, 10985, 10426, 10987, 10988
3111,  3203,  3022,  3021,  3202, 10987, 10428, 10989, 10990
3112,  3202,  3021,  3020,  3201, 10989, 10430, 10991, 10992
3113,  3201,  3020,  3019,  3200, 10991, 10432, 10993, 10994
3114,  3200,  3019,  3018,  3199, 10993, 10434, 10995, 10996
3115,  3199,  3018,  3017,  3198, 10995, 10436, 10997, 10998
3116,  3198,  3017,   998,  1068, 10997, 10438, 10999, 11000
3117,  1067,  3220,  3243,  1070, 10954, 11001, 11002, 11003
3118,  3220,  3219,  3242,  3243, 10956, 11004, 11005, 11001
3119,  3219,  3218,  3241,  3242, 10958, 11006, 11007, 11004
3120,  3218,  3217,  3240,  3241, 10960, 11008, 11009, 11006
3121,  3217,  3216,  3239,  3240, 10962, 11010, 11011, 11008
3122,  3216,  3215,  3238,  3239, 10964, 11012, 11013, 11010
3123,  3215,  3214,  3237,  3238, 10966, 11014, 11015, 11012
3124,  3214,  3213,  3236,  3237, 10968, 11016, 11017, 11014
3125,  3213,  3212,  3235,  3236, 10970, 11018, 11019, 11016
3126,  3212,  3211,  3234,  3235, 10972, 11020, 11021, 11018
3127,  3211,  3210,  3233,  3234, 10974, 11022, 11023, 11020
3128,  3210,  3209,  3232,  3233, 10976, 11024, 11025, 11022
3129,  3209,  3208,  3231,  3232, 10978, 11026, 11027, 11024
3130,  3208,  3207,  3230,  3231, 10980, 11028, 11029, 11026
3131,  3207,  3206,  3229,  3230, 10982, 11030, 11031, 11028
3132,  3206,  3205,  3228,  3229, 10984, 11032, 11033, 11030
3133,  3205,  3204,  3227,  3228, 10986, 11034, 11035, 11032
3134,  3204,  3203,  3226,  3227, 10988, 11036, 11037, 11034
3135,  3203,  3202,  3225,  3226, 10990, 11038, 11039, 11036
3136,  3202,  3201,  3224,  3225, 10992, 11040, 11041, 11038
3137,  3201,  3200,  3223,  3224, 10994, 11042, 11043, 11040
3138,  3200,  3199,  3222,  3223, 10996, 11044, 11045, 11042
3139,  3199,  3198,  3221,  3222, 10998, 11046, 11047, 11044
3140,  3198,  1068,  1069,  3221, 11000, 11048, 11049, 11046
3141,  1068,   998,  3040,  3244, 10999, 10444, 11050, 11051
3142,  3244,  3040,  1000,  1003, 11050, 10442, 10453, 11052
3143,  1068,  3244,  3245,  1069, 11051, 11053, 11054, 11048
3144,  3244,  1003,  1005,  3245, 11052, 10459, 11055, 11053
3145,  1007,  3246,  3245,  1005, 11056, 11057, 11055, 10507
3146,  3246,  1071,  1069,  3245, 11058, 11059, 11054, 11057
3147,  1071,  3246,  3247,  1072, 11058, 11060, 11061, 11062
3148,  3246,  1007,  1009,  3247, 11056, 10511, 11063, 11060
3149,  1071,  1072,  3248,  3293, 11062, 11064, 11065, 11066
3150,  3293,  3248,  3249,  3292, 11065, 11067, 11068, 11069
3151,  3292,  3249,  3250,  3291, 11068, 11070, 11071, 11072
3152,  3291,  3250,  3251,  3290, 11071, 11073, 11074, 11075
3153,  3290,  3251,  3252,  3289, 11074, 11076, 11077, 11078
3154,  3289,  3252,  3253,  3288, 11077, 11079, 11080, 11081
3155,  3288,  3253,  3254,  3287, 11080, 11082, 11083, 11084
3156,  3287,  3254,  3255,  3286, 11083, 11085, 11086, 11087
3157,  3286,  3255,  3256,  3285, 11086, 11088, 11089, 11090
3158,  3285,  3256,  3257,  3284, 11089, 11091, 11092, 11093
3159,  3284,  3257,  3258,  3283, 11092, 11094, 11095, 11096
3160,  3283,  3258,  3259,  3282, 11095, 11097, 11098, 11099
3161,  3282,  3259,  3260,  3281, 11098, 11100, 11101, 11102
3162,  3281,  3260,  3261,  3280, 11101, 11103, 11104, 11105
3163,  3280,  3261,  3262,  3279, 11104, 11106, 11107, 11108
3164,  3279,  3262,  3263,  3278, 11107, 11109, 11110, 11111
3165,  3278,  3263,  3264,  3277, 11110, 11112, 11113, 11114
3166,  3277,  3264,  3265,  3276, 11113, 11115, 11116, 11117
3167,  3276,  3265,  3266,  3275, 11116, 11118, 11119, 11120
3168,  3275,  3266,  3267,  3274, 11119, 11121, 11122, 11123
3169,  3274,  3267,  3268,  3273, 11122, 11124, 11125, 11126
3170,  3273,  3268,  3269,  3272, 11125, 11127, 11128, 11129
3171,  3272,  3269,  3270,  3271, 11128, 11130, 11131, 11132
3172,  3271,  3270,  1073,  1074, 11131, 11133, 11134, 11135
3173,  1015,  1072,  3247,  3066, 11136, 11061, 11137, 10525
3174,  3066,  3247,  1009,  1011, 11137, 11063, 10517, 10527
3175,  1072,  1015,  3090,  3248, 11136, 10533, 11138, 11064
3176,  3248,  3090,  3089,  3249, 11138, 10535, 11139, 11067
3177,  3249,  3089,  3088,  3250, 11139, 10537, 11140, 11070
3178,  3250,  3088,  3087,  3251, 11140, 10539, 11141, 11073
3179,  3251,  3087,  3086,  3252, 11141, 10541, 11142, 11076
3180,  3252,  3086,  3085,  3253, 11142, 10543, 11143, 11079
3181,  3253,  3085,  3084,  3254, 11143, 10545, 11144, 11082
3182,  3254,  3084,  3083,  3255, 11144, 10547, 11145, 11085
3183,  3255,  3083,  3082,  3256, 11145, 10549, 11146, 11088
3184,  3256,  3082,  3081,  3257, 11146, 10551, 11147, 11091
3185,  3257,  3081,  3080,  3258, 11147, 10553, 11148, 11094
3186,  3258,  3080,  3079,  3259, 11148, 10555, 11149, 11097
3187,  3259,  3079,  3078,  3260, 11149, 10557, 11150, 11100
3188,  3260,  3078,  3077,  3261, 11150, 10559, 11151, 11103
3189,  3261,  3077,  3076,  3262, 11151, 10561, 11152, 11106
3190,  3262,  3076,  3075,  3263, 11152, 10563, 11153, 11109
3191,  3263,  3075,  3074,  3264, 11153, 10565, 11154, 11112
3192,  3264,  3074,  3073,  3265, 11154, 10567, 11155, 11115
3193,  3265,  3073,  3072,  3266, 11155, 10569, 11156, 11118
3194,  3266,  3072,  3071,  3267, 11156, 10571, 11157, 11121
3195,  3267,  3071,  3070,  3268, 11157, 10573, 11158, 11124
3196,  3268,  3070,  3069,  3269, 11158, 10575, 11159, 11127
3197,  3269,  3069,  3068,  3270, 11159, 10577, 11160, 11130
3198,  3270,  3068,  1017,  1073, 11160, 10579, 11161, 11133
3199,  1073,  1017,  3094,  3297, 11161, 10583, 11162, 11163
3200,  3297,  3094,  3093,  3296, 11162, 10585, 11164, 11165
3201,  3296,  3093,  3092,  3295, 11164, 10587, 11166, 11167
3202,  3295,  3092,  3091,  3294, 11166, 10589, 11168, 11169
3203,  3294,  3091,  1019,  1075, 11168, 10591, 11170, 11171
3204,  1076,   404,  1815,  3312, 11172,  6178, 11173, 11174
3205,  3312,  1815,  1814,  3311, 11173,  6181, 11175, 11176
3206,  3311,  1814,  1813,  3310, 11175,  6184, 11177, 11178
3207,  3310,  1813,  1812,  3309, 11177,  6187, 11179, 11180
3208,  3309,  1812,  1811,  3308, 11179,  6190, 11181, 11182
3209,  3308,  1811,  1810,  3307, 11181,  6193, 11183, 11184
3210,  3307,  1810,  1809,  3306, 11183,  6196, 11185, 11186
3211,  3306,  1809,  1808,  3305, 11185,  6199, 11187, 11188
3212,  3305,  1808,  1807,  3304, 11187,  6202, 11189, 11190
3213,  3304,  1807,  1806,  3303, 11189,  6205, 11191, 11192
3214,  3303,  1806,  1805,  3302, 11191,  6208, 11193, 11194
3215,  3302,  1805,  1804,  3301, 11193,  6211, 11195, 11196
3216,  3301,  1804,  1803,  3300, 11195,  6214, 11197, 11198
3217,  3300,  1803,  1802,  3299, 11197,  6217, 11199, 11200
3218,  3299,  1802,  1801,  3298, 11199,  6220, 11201, 11202
3219,  3298,  1801,   407,  1075, 11201,  6223, 11203, 11204
3220,  1075,  1019,  3110,  3298, 11170, 10597, 11205, 11204
3221,  3298,  3110,  3109,  3299, 11205, 10599, 11206, 11202
3222,  3299,  3109,  3108,  3300, 11206, 10601, 11207, 11200
3223,  3300,  3108,  3107,  3301, 11207, 10603, 11208, 11198
3224,  3301,  3107,  3106,  3302, 11208, 10605, 11209, 11196
3225,  3302,  3106,  3105,  3303, 11209, 10607, 11210, 11194
3226,  3303,  3105,  3104,  3304, 11210, 10609, 11211, 11192
3227,  3304,  3104,  3103,  3305, 11211, 10611, 11212, 11190
3228,  3305,  3103,  3102,  3306, 11212, 10613, 11213, 11188
3229,  3306,  3102,  3101,  3307, 11213, 10615, 11214, 11186
3230,  3307,  3101,  3100,  3308, 11214, 10617, 11215, 11184
3231,  3308,  3100,  3099,  3309, 11215, 10619, 11216, 11182
3232,  3309,  3099,  3098,  3310, 11216, 10621, 11217, 11180
3233,  3310,  3098,  3097,  3311, 11217, 10623, 11218, 11178
3234,  3311,  3097,  3096,  3312, 11218, 10625, 11219, 11176
3235,  3312,  3096,  1021,  1076, 11219, 10627, 11220, 11174
3236,   404,  1076,  1077,   410, 11172, 11221, 11222,  6227
3237,  1076,  1021,  1023,  1077, 11220, 10631, 11223, 11221
3238,   410,  1077,  3313,  1834, 11222, 11224, 11225,  6260
3239,  1834,  3313,  1078,   414, 11225, 11226, 11227,  6263
3240,  1077,  1023,  3112,  3313, 11223, 10637, 11228, 11224
3241,  3313,  3112,  1025,  1078, 11228, 10639, 11229, 11226
3242,  1079,   418,   414,  1078, 11230,  6271, 11227, 11231
3243,  1027,  1079,  1078,  1025, 11232, 11231, 11229, 10643
3244,   418,  1079,  1080,   422, 11230, 11233, 11234,  6278
3245,  1081,   429,   430,   426, 11235,  6294,  6292, 11236
3246,  1079,  1027,  1030,  1080, 11232, 10650, 11237, 11233
3247,   422,  1080,  1081,   426, 11234, 11238, 11236,  6284
3248,   429,  1081,  1082,   425, 11235, 11239, 11240,  6288
3249,  1030,  1082,  1081,  1080, 11241, 11239, 11238, 11237
3250,   425,  1082,  1083,   421, 11240, 11242, 11243,  6282
3251,  1082,  1030,  1029,  1083, 11241, 10649, 11244, 11242
3252,   421,  1083,  3314,  1836, 11243, 11245, 11246,  6273
3253,  1836,  3314,  1084,   417, 11246, 11247, 11248,  6276
3254,  1083,  1029,  3114,  3314, 11244, 10654, 11249, 11245
3255,  3314,  3114,  1032,  1084, 11249, 10656, 11250, 11247
3256,   417,  1084,  1085,   413, 11248, 11251, 11252,  6267
3257,  1084,  1032,  1034,  1085, 11250, 10668, 11253, 11251
3258,   413,  1085,  3315,  1816, 11252, 11254, 11255,  6231
3259,  1816,  3315,  3316,  1817, 11255, 11256, 11257,  6234
3260,  1817,  3316,  3317,  1818, 11257, 11258, 11259,  6237
3261,  1818,  3317,  3318,  1819, 11259, 11260, 11261,  6240
3262,  1819,  3318,  3319,  1820, 11261, 11262, 11263,  6243
3263,  1820,  3319,  3320,  1821, 11263, 11264, 11265,  6246
3264,  1821,  3320,  3321,  1822, 11265, 11266, 11267,  6249
3265,  1822,  3321,  3322,  1823, 11267, 11268, 11269,  6252
3266,  1823,  3322,  3323,  1824, 11269, 11270, 11271,  6255
3267,  1824,  3323,  1086,   409, 11271, 11272, 11273,  6258
3268,  1085,  1034,  3131,  3315, 11253, 10680, 11274, 11254
3269,  3315,  3131,  3130,  3316, 11274, 10682, 11275, 11256
3270,  3316,  3130,  3129,  3317, 11275, 10684, 11276, 11258
3271,  3317,  3129,  3128,  3318, 11276, 10686, 11277, 11260
3272,  3318,  3128,  3127,  3319, 11277, 10688, 11278, 11262
3273,  3319,  3127,  3126,  3320, 11278, 10690, 11279, 11264
3274,  3320,  3126,  3125,  3321, 11279, 10692, 11280, 11266
3275,  3321,  3125,  3124,  3322, 11280, 10694, 11281, 11268
3276,  3322,  3124,  3123,  3323, 11281, 10696, 11282, 11270
3277,  3323,  3123,  1036,  1086, 11282, 10698, 11283, 11272
3278,   409,  1086,  1087,   403, 11273, 11284, 11285,  6225
3279,  1086,  1036,  1038,  1087, 11283, 10702, 11286, 11284
3280,  1088,   401,  1785,  3324, 11287,  6171, 11288, 11289
3281,  3324,  1785,   403,  1087, 11288,  6174, 11285, 11290
3282,  1040,  1088,  3324,  3133, 11291, 11289, 11292, 10708
3283,  3133,  3324,  1087,  1038, 11292, 11290, 11286, 10710
3284,  1089,   399,   401,  1088, 11293,  6168, 11287, 11294
3285,  1044,  1089,  1088,  1040, 11295, 11294, 11291, 10716
3286,   399,  1089,  3325,  1782, 11293, 11296, 11297,  6161
3287,  1782,  3325,   395,   396, 11297, 11298,  6157,  6164
3288,  1044,  3326,  3325,  1089, 11299, 11300, 11296, 11295
3289,  3326,   391,   395,  3325, 11301,  6154, 11298, 11300
3290,  1043,  3327,  3326,  1044, 11302, 11303, 11299, 10715
3291,  3327,   387,   391,  3326, 11304,  6145, 11301, 11303
3292,   387,  3327,  3328,   383, 11304, 11305, 11306,  6138
3293,  3327,  1043,  1046,  3328, 11302, 10720, 11307, 11305
3294,   383,  3328,  3991,  1776, 11306, 11308, 11309,  6126
3295,  3328,  1046,  3135,  3991, 11307, 10726, 11310, 11308
3296,  1776,  3991,  3329,   379, 11309, 11311, 11312,  6129
3297,  3991,  3135,  1048,  3329, 11310, 10728, 11313, 11311
3298,  1050,  3330,  3329,  1048, 11314, 11315, 11313, 10732
3299,  3330,   373,   379,  3329, 11316,  6121, 11312, 11315
3300,  1052,  3331,  3992,  3155, 11317, 11318, 11319, 10774
3301,  3331,   374,  1748,  3992, 11320,  6101, 11321, 11318
3302,  3155,  3992,  3993,  3156, 11319, 11322, 11323, 10776
3303,  3992,  1748,  1747,  3993, 11321,  6098, 11324, 11322
3304,  3156,  3993,  3994,  3157, 11323, 11325, 11326, 10778
3305,  3993,  1747,  1746,  3994, 11324,  6095, 11327, 11325
3306,  3157,  3994,  3995,  3158, 11326, 11328, 11329, 10780
3307,  3994,  1746,  1745,  3995, 11327,  6092, 11330, 11328
3308,  3158,  3995,  3996,  3159, 11329, 11331, 11332, 10782
3309,  3995,  1745,  1744,  3996, 11330,  6089, 11333, 11331
3310,  3159,  3996,  3997,  3160, 11332, 11334, 11335, 10784
3311,  3996,  1744,  1743,  3997, 11333,  6086, 11336, 11334
3312,  3160,  3997,  3998,  3161, 11335, 11337, 11338, 10786
3313,  3997,  1743,  1742,  3998, 11336,  6083, 11339, 11337
3314,  3161,  3998,  3999,  3162, 11338, 11340, 11341, 10788
3315,  3998,  1742,  1741,  3999, 11339,  6080, 11342, 11340
3316,  3162,  3999,  4000,  3163, 11341, 11343, 11344, 10790
3317,  3999,  1741,  1740,  4000, 11342,  6077, 11345, 11343
3318,  3163,  4000,  4001,  3164, 11344, 11346, 11347, 10792
3319,  4000,  1740,  1739,  4001, 11345,  6074, 11348, 11346
3320,  3164,  4001,  4002,  3165, 11347, 11349, 11350, 10794
3321,  4001,  1739,  1738,  4002, 11348,  6071, 11351, 11349
3322,  3165,  4002,  4003,  3166, 11350, 11352, 11353, 10796
3323,  4002,  1738,  1737,  4003, 11351,  6068, 11354, 11352
3324,  3166,  4003,  4004,  3167, 11353, 11355, 11356, 10798
3325,  4003,  1737,  1736,  4004, 11354,  6065, 11357, 11355
3326,  3167,  4004,  4005,  3168, 11356, 11358, 11359, 10800
3327,  4004,  1736,  1735,  4005, 11357,  6062, 11360, 11358
3328,  3168,  4005,  4006,  3169, 11359, 11361, 11362, 10802
3329,  4005,  1735,  1734,  4006, 11360,  6059, 11363, 11361
3330,  3169,  4006,  4007,  3170, 11362, 11364, 11365, 10804
3331,  4006,  1734,  1733,  4007, 11363,  6056, 11366, 11364
3332,  3170,  4007,  4008,  3171, 11365, 11367, 11368, 10806
3333,  4007,  1733,  1732,  4008, 11366,  6053, 11369, 11367
3334,  3171,  4008,  4009,  3172, 11368, 11370, 11371, 10808
3335,  4008,  1732,  1731,  4009, 11369,  6050, 11372, 11370
3336,  3172,  4009,  4010,  3173, 11371, 11373, 11374, 10810
3337,  4009,  1731,  1730,  4010, 11372,  6047, 11375, 11373
3338,  3173,  4010,  3330,  1050, 11374, 11376, 11314, 10812
3339,  4010,  1730,   373,  3330, 11375,  6044, 11316, 11376
3340,  1056,  3332,  4011,  3177, 11377, 11378, 11379, 10828
3341,  3332,   374,  3331,  4011, 11380, 11320, 11381, 11378
3342,  3177,  4011,  3175,  1054, 11379, 11382, 10820, 10830
3343,  4011,  3331,  1052,  3175, 11381, 11317, 10818, 11382
3344,   374,  3332,  3333,   375, 11380, 11383, 11384,  6102
3345,  3332,  1056,  1055,  3333, 11377, 11385, 11386, 11383
3346,   375,  3333,  4012,  3334, 11384, 11387, 11388, 11389
3347,  3333,  1055,  3176,  4012, 11386, 10825, 11390, 11387
3348,  3334,  4012,  3174,  1051, 11388, 11391, 10816, 11392
3349,  4012,  3176,  1053,  3174, 11390, 10823, 10815, 11391
3350,  1049,  3335,  4013,  3136, 11393, 11394, 11395, 10733
3351,  3335,   372,  1767,  4013, 11396,  6046, 11397, 11394
3352,  3136,  4013,  4014,  3137, 11395, 11398, 11399, 10735
3353,  4013,  1767,  1766,  4014, 11397,  6049, 11400, 11398
3354,  3137,  4014,  4015,  3138, 11399, 11401, 11402, 10737
3355,  4014,  1766,  1765,  4015, 11400,  6052, 11403, 11401
3356,  3138,  4015,  4016,  3139, 11402, 11404, 11405, 10739
3357,  4015,  1765,  1764,  4016, 11403,  6055, 11406, 11404
3358,  3139,  4016,  4017,  3140, 11405, 11407, 11408, 10741
3359,  4016,  1764,  1763,  4017, 11406,  6058, 11409, 11407
3360,  3140,  4017,  4018,  3141, 11408, 11410, 11411, 10743
3361,  4017,  1763,  1762,  4018, 11409,  6061, 11412, 11410
3362,  3141,  4018,  4019,  3142, 11411, 11413, 11414, 10745
3363,  4018,  1762,  1761,  4019, 11412,  6064, 11415, 11413
3364,  3142,  4019,  4020,  3143, 11414, 11416, 11417, 10747
3365,  4019,  1761,  1760,  4020, 11415,  6067, 11418, 11416
3366,  3143,  4020,  4021,  3144, 11417, 11419, 11420, 10749
3367,  4020,  1760,  1759,  4021, 11418,  6070, 11421, 11419
3368,  3144,  4021,  4022,  3145, 11420, 11422, 11423, 10751
3369,  4021,  1759,  1758,  4022, 11421,  6073, 11424, 11422
3370,  3145,  4022,  4023,  3146, 11423, 11425, 11426, 10753
3371,  4022,  1758,  1757,  4023, 11424,  6076, 11427, 11425
3372,  3146,  4023,  4024,  3147, 11426, 11428, 11429, 10755
3373,  4023,  1757,  1756,  4024, 11427,  6079, 11430, 11428
3374,  3147,  4024,  4025,  3148, 11429, 11431, 11432, 10757
3375,  4024,  1756,  1755,  4025, 11430,  6082, 11433, 11431
3376,  3148,  4025,  4026,  3149, 11432, 11434, 11435, 10759
3377,  4025,  1755,  1754,  4026, 11433,  6085, 11436, 11434
3378,  3149,  4026,  4027,  3150, 11435, 11437, 11438, 10761
3379,  4026,  1754,  1753,  4027, 11436,  6088, 11439, 11437
3380,  3150,  4027,  4028,  3151, 11438, 11440, 11441, 10763
3381,  4027,  1753,  1752,  4028, 11439,  6091, 11442, 11440
3382,  3151,  4028,  4029,  3152, 11441, 11443, 11444, 10765
3383,  4028,  1752,  1751,  4029, 11442,  6094, 11445, 11443
3384,  3152,  4029,  4030,  3153, 11444, 11446, 11447, 10767
3385,  4029,  1751,  1750,  4030, 11445,  6097, 11448, 11446
3386,  3153,  4030,  4031,  3154, 11447, 11449, 11450, 10769
3387,  4030,  1750,  1749,  4031, 11448,  6100, 11451, 11449
3388,  3154,  4031,  3334,  1051, 11450, 11452, 11392, 10771
3389,  4031,  1749,   375,  3334, 11451,  6103, 11389, 11452
3390,   372,  3335,  3336,   378, 11396, 11453, 11454,  6119
3391,  3335,  1049,  1047,  3336, 11393, 10730, 11455, 11453
3392,  1045,  3337,  4032,  3134, 11456, 11457, 11458, 10721
3393,  3337,   382,  1777,  4032, 11459,  6128, 11460, 11457
3394,  3134,  4032,  3336,  1047, 11458, 11461, 11455, 10723
3395,  4032,  1777,   378,  3336, 11460,  6130, 11454, 11461
3396,  1041,  3338,  3337,  1045, 11462, 11463, 11456, 10717
3397,  3338,   386,   382,  3337, 11464,  6139, 11459, 11463
3398,   386,  3338,  3339,   390, 11464, 11465, 11466,  6143
3399,  3338,  1041,  1042,  3339, 11462, 10713, 11467, 11465
3400,  1090,   389,  1781,  3340, 11468,  6148, 11469, 11470
3401,  3340,  1781,   393,   394, 11469,  6151,  6155, 11471
3402,   390,  3339,  3340,   394, 11466, 11472, 11471,  6152
3403,  3339,  1042,  1090,  3340, 11467, 11473, 11470, 11472
3404,   389,  1090,  1091,   385, 11468, 11474, 11475,  6141
3405,  1090,  1042,  1039,  1091, 11473, 10712, 11476, 11474
3406,   385,  1091,  3341,  1778, 11475, 11477, 11478,  6132
3407,  1778,  3341,  1092,   381, 11478, 11479, 11480,  6135
3408,  1091,  1039,  3132,  3341, 11476, 10705, 11481, 11477
3409,  3341,  3132,  1037,  1092, 11481, 10706, 11482, 11479
3410,  1093,   377,   381,  1092, 11483,  6124, 11480, 11484
3411,  1035,  1093,  1092,  1037, 11485, 11484, 11482, 10699
3412,  1094,   368,  1771,  3345, 11486,  6117, 11487, 11488
3413,  3345,  1771,  1770,  3344, 11487,  6114, 11489, 11490
3414,  3344,  1770,  1769,  3343, 11489,  6111, 11491, 11492
3415,  3343,  1769,  1768,  3342, 11491,  6108, 11493, 11494
3416,  3342,  1768,   377,  1093, 11493,  6105, 11483, 11495
3417,  1033,  1094,  3345,  3119, 11496, 11488, 11497, 10669
3418,  3119,  3345,  3344,  3120, 11497, 11490, 11498, 10671
3419,  3120,  3344,  3343,  3121, 11498, 11492, 11499, 10673
3420,  3121,  3343,  3342,  3122, 11499, 11494, 11500, 10675
3421,  3122,  3342,  1093,  1035, 11500, 11495, 11485, 10677
3422,  1095,   367,  1727,  3349, 11501,  6024, 11502, 11503
3423,  3349,  1727,  1726,  3348, 11502,  6026, 11504, 11505
3424,  3348,  1726,  1725,  3347, 11504,  6028, 11506, 11507
3425,  3347,  1725,  1724,  3346, 11506,  6030, 11508, 11509
3426,  3346,  1724,   368,  1094, 11508,  6032, 11486, 11510
3427,  1031,  1095,  3349,  3115, 11511, 11503, 11512, 10657
3428,  3115,  3349,  3348,  3116, 11512, 11505, 11513, 10659
3429,  3116,  3348,  3347,  3117, 11513, 11507, 11514, 10661
3430,  3117,  3347,  3346,  3118, 11514, 11509, 11515, 10663
3431,  3118,  3346,  1094,  1033, 11515, 11510, 11496, 10665
3432,  1096,   369,   367,  1095, 11516,  6034, 11501, 11517
3433,  1028,  1096,  1095,  1031, 11518, 11517, 11511, 10651
3434,  1097,   370,  1728,  3350, 11519,  6037, 11520, 11521
3435,  3350,  1728,   369,  1096, 11520,  6038, 11516, 11522
3436,  1026,  1097,  3350,  3113, 11523, 11521, 11524, 10644
3437,  3113,  3350,  1096,  1028, 11524, 11522, 11518, 10646
3438,  1098,   371,   370,  1097, 11525, 11526, 11519, 11527
3439,  1024,  1098,  1097,  1026, 11528, 11527, 11523, 10640
3440,  1099,   179,  1729,  3351, 11529,  6042, 11530, 11531
3441,  3351,  1729,   371,  1098, 11530,  6040, 11525, 11532
3442,  1022,  1099,  3351,  3111, 11533, 11531, 11534, 10632
3443,  3111,  3351,  1098,  1024, 11534, 11532, 11528, 10634
3444,  1100,   178,   179,  1099, 11535,  4739, 11529, 11536
3445,  1020,  1100,  1099,  1022, 11537, 11536, 11533, 10628
3446,  1101,   180,  1330,  3352, 11538,  4742, 11539, 11540
3447,  3352,  1330,   178,  1100, 11539,  4743, 11535, 11541
3448,  1018,  1101,  3352,  3095, 11542, 11540, 11543, 10592
3449,  3095,  3352,  1100,  1020, 11543, 11541, 11537, 10594
3450,  1102,   181,   180,  1101, 11544,  4745, 11538, 11545
3451,  1006,  3353,  3354,  1008, 11546, 11547, 11548, 10508
3452,  3353,    77,    73,  3354, 11549,  4397, 11550, 11547
3453,  1016,  1102,  1101,  1018, 11551, 11545, 11542, 10580
3454,  1008,  3354,  4033,  3065, 11548, 11552, 11553, 10512
3455,  3354,    73,  1199,  4033, 11550,  4386, 11554, 11552
3456,  3065,  4033,  3355,  1010, 11553, 11555, 11556, 10514
3457,  4033,  1199,    69,  3355, 11554,  4388, 11557, 11555
3458,  1103,   182,  1331,  3356, 11558,  4748, 11559, 11560
3459,  3356,  1331,   181,  1102, 11559,  4749, 11544, 11561
3460,  1004,  3357,  4034,  3043, 11562, 11563, 11564, 10460
3461,  3357,    81,  1245,  4034, 11565,  4404, 11566, 11563
3462,  3043,  4034,  4035,  3044, 11564, 11567, 11568, 10462
3463,  4034,  1245,  1244,  4035, 11566,  4407, 11569, 11567
3464,  3044,  4035,  4036,  3045, 11568, 11570, 11571, 10464
3465,  4035,  1244,  1243,  4036, 11569,  4410, 11572, 11570
3466,  3045,  4036,  4037,  3046, 11571, 11573, 11574, 10466
3467,  4036,  1243,  1242,  4037, 11572,  4413, 11575, 11573
3468,  3046,  4037,  4038,  3047, 11574, 11576, 11577, 10468
3469,  4037,  1242,  1241,  4038, 11575,  4416, 11578, 11576
3470,  3047,  4038,  4039,  3048, 11577, 11579, 11580, 10470
3471,  4038,  1241,  1240,  4039, 11578,  4419, 11581, 11579
3472,  3048,  4039,  4040,  3049, 11580, 11582, 11583, 10472
3473,  4039,  1240,  1239,  4040, 11581,  4422, 11584, 11582
3474,  3049,  4040,  4041,  3050, 11583, 11585, 11586, 10474
3475,  4040,  1239,  1238,  4041, 11584,  4425, 11587, 11585
3476,  3050,  4041,  4042,  3051, 11586, 11588, 11589, 10476
3477,  4041,  1238,  1237,  4042, 11587,  4428, 11590, 11588
3478,  3051,  4042,  4043,  3052, 11589, 11591, 11592, 10478
3479,  4042,  1237,  1236,  4043, 11590,  4431, 11593, 11591
3480,  3052,  4043,  4044,  3053, 11592, 11594, 11595, 10480
3481,  4043,  1236,  1235,  4044, 11593,  4434, 11596, 11594
3482,  3053,  4044,  4045,  3054, 11595, 11597, 11598, 10482
3483,  4044,  1235,  1234,  4045, 11596,  4437, 11599, 11597
3484,  3054,  4045,  4046,  3055, 11598, 11600, 11601, 10484
3485,  4045,  1234,  1233,  4046, 11599,  4440, 11602, 11600
3486,  3055,  4046,  4047,  3056, 11601, 11603, 11604, 10486
3487,  4046,  1233,  1232,  4047, 11602,  4443, 11605, 11603
3488,  3056,  4047,  4048,  3057, 11604, 11606, 11607, 10488
3489,  4047,  1232,  1231,  4048, 11605,  4446, 11608, 11606
3490,  3057,  4048,  4049,  3058, 11607, 11609, 11610, 10490
3491,  4048,  1231,  1230,  4049, 11608,  4449, 11611, 11609
3492,  3058,  4049,  4050,  3059, 11610, 11612, 11613, 10492
3493,  4049,  1230,  1229,  4050, 11611,  4452, 11614, 11612
3494,  3059,  4050,  4051,  3060, 11613, 11615, 11616, 10494
3495,  4050,  1229,  1228,  4051, 11614,  4455, 11617, 11615
3496,  3060,  4051,  4052,  3061, 11616, 11618, 11619, 10496
3497,  4051,  1228,  1227,  4052, 11617,  4458, 11620, 11618
3498,  3061,  4052,  4053,  3062, 11619, 11621, 11622, 10498
3499,  4052,  1227,  1226,  4053, 11620,  4461, 11623, 11621
3500,  3062,  4053,  4054,  3063, 11622, 11624, 11625, 10500
3501,  4053,  1226,  1225,  4054, 11623,  4464, 11626, 11624
3502,  3063,  4054,  4055,  3064, 11625, 11627, 11628, 10502
3503,  4054,  1225,  1224,  4055, 11626,  4467, 11629, 11627
3504,  3064,  4055,  3353,  1006, 11628, 11630, 11546, 10504
3505,  4055,  1224,    77,  3353, 11629,  4469, 11549, 11630
3506,  1014,  1103,  3356,  3067, 11631, 11560, 11632, 10528
3507,  3067,  3356,  1102,  1016, 11632, 11561, 11551, 10530
3508,    63,  3358,  3355,    69, 11633, 11634, 11557,  4377
3509,  3358,  1012,  1010,  3355, 11635, 10519, 11556, 11634
3510,  1104,   183,   182,  1103, 11636,  4751, 11558, 11637
3511,    81,  3357,  4056,  3360, 11565, 11638, 11639, 11640
3512,  3357,  1004,  3042,  4056, 11562, 10456, 11641, 11638
3513,  3360,  4056,  3359,    80, 11639, 11642, 11643, 11644
3514,  4056,  3042,  1002,  3359, 11641, 10457, 11645, 11642
3515,  1013,  1104,  1103,  1014, 11646, 11637, 11631, 10522
3516,  1012,  3358,  3361,  1013, 11635, 11647, 11648, 10521
3517,  3358,    63,    66,  3361, 11633,  4370, 11649, 11647
3518,  1105,   184,  1332,  3362, 11650,  4754, 11651, 11652
3519,  3362,  1332,   183,  1104, 11651,  4755, 11636, 11653
3520,    80,  3359,  3363,    76, 11643, 11654, 11655,  4399
3521,  3359,  1002,  1001,  3363, 11645, 10451, 11656, 11654
3522,  1013,  3361,  3362,  1104, 11648, 11657, 11653, 11646
3523,  3361,    66,  1105,  3362, 11649, 11658, 11652, 11657
3524,  1106,   185,   184,  1105, 11659,  4757, 11650, 11660
3525,    23,  3364,  3365,    29, 11661, 11662, 11663,  4222
3526,  3364,    64,    70,  3365, 11664,  4379, 11665, 11662
3527,    76,  3363,  4057,  1200, 11655, 11666, 11667,  4390
3528,  3363,  1001,  3041,  4057, 11656, 10447, 11668, 11666
3529,  1200,  4057,  3366,    71, 11667, 11669, 11670,  4393
3530,  4057,  3041,   999,  3366, 11668, 10448, 11671, 11669
3531,    65,  1106,  1105,    66, 11672, 11660, 11658,  4369
3532,    64,  3364,  3367,    65, 11664, 11673, 11674,  4368
3533,  3364,    23,    26,  3367, 11661,  4218, 11675, 11673
3534,  1107,   186,  1333,  3368, 11676,  4760, 11677, 11678
3535,  3368,  1333,   185,  1106, 11677,  4761, 11659, 11679
3536,    74,  3369,  4058,  1198, 11680, 11681, 11682,  4384
3537,  3369,    33,  1133,  4058, 11683,  4231, 11684, 11681
3538,  1198,  4058,  3365,    70, 11682, 11685, 11665,  4387
3539,  4058,  1133,    29,  3365, 11684,  4233, 11663, 11685
3540,    71,  3366,  3370,    72, 11670, 11686, 11687,  4381
3541,  3366,   999,   997,  3370, 11671, 10440, 11688, 11686
3542,    65,  3367,  3368,  1106, 11674, 11689, 11679, 11672
3543,  3367,    26,  1107,  3368, 11675, 11690, 11678, 11689
3544,   186,  1107,  1108,   187, 11676, 11691, 11692,  4762
3545,    78,  3371,  3369,    74, 11693, 11694, 11680,  4396
3546,  3371,    37,    33,  3369, 11695,  4242, 11683, 11694
3547,    72,  3370,  4059,  3372, 11687, 11696, 11697, 11698
3548,  3370,   997,  3016,  4059, 11688, 10389, 11699, 11696
3549,  3372,  4059,  2996,   992, 11697, 11700, 10343, 11701
3550,  4059,  3016,   994,  2996, 11699, 10390, 10342, 11700
3551,    25,  1108,  1107,    26, 11702, 11691, 11690,  4217
3552,  1108,  3373,  1334,   187, 11703, 11704,  4767, 11692
3553,  3373,   197,   188,  1334, 11705,  4898,  4766, 11704
3554,    82,  3374,  4060,  1202, 11706, 11707, 11708,  4402
3555,  3374,    41,  1179,  4060, 11709,  4249, 11710, 11707
3556,  1202,  4060,  4061,  1203, 11708, 11711, 11712,  4405
3557,  4060,  1179,  1178,  4061, 11710,  4252, 11713, 11711
3558,  1203,  4061,  4062,  1204, 11712, 11714, 11715,  4408
3559,  4061,  1178,  1177,  4062, 11713,  4255, 11716, 11714
3560,  1204,  4062,  4063,  1205, 11715, 11717, 11718,  4411
3561,  4062,  1177,  1176,  4063, 11716,  4258, 11719, 11717
3562,  1205,  4063,  4064,  1206, 11718, 11720, 11721,  4414
3563,  4063,  1176,  1175,  4064, 11719,  4261, 11722, 11720
3564,  1206,  4064,  4065,  1207, 11721, 11723, 11724,  4417
3565,  4064,  1175,  1174,  4065, 11722,  4264, 11725, 11723
3566,  1207,  4065,  4066,  1208, 11724, 11726, 11727,  4420
3567,  4065,  1174,  1173,  4066, 11725,  4267, 11728, 11726
3568,  1208,  4066,  4067,  1209, 11727, 11729, 11730,  4423
3569,  4066,  1173,  1172,  4067, 11728,  4270, 11731, 11729
3570,  1209,  4067,  4068,  1210, 11730, 11732, 11733,  4426
3571,  4067,  1172,  1171,  4068, 11731,  4273, 11734, 11732
3572,  1210,  4068,  4069,  1211, 11733, 11735, 11736,  4429
3573,  4068,  1171,  1170,  4069, 11734,  4276, 11737, 11735
3574,  1211,  4069,  4070,  1212, 11736, 11738, 11739,  4432
3575,  4069,  1170,  1169,  4070, 11737,  4279, 11740, 11738
3576,  1212,  4070,  4071,  1213, 11739, 11741, 11742,  4435
3577,  4070,  1169,  1168,  4071, 11740,  4282, 11743, 11741
3578,  1213,  4071,  4072,  1214, 11742, 11744, 11745,  4438
3579,  4071,  1168,  1167,  4072, 11743,  4285, 11746, 11744
3580,  1214,  4072,  4073,  1215, 11745, 11747, 11748,  4441
3581,  4072,  1167,  1166,  4073, 11746,  4288, 11749, 11747
3582,  1215,  4073,  4074,  1216, 11748, 11750, 11751,  4444
3583,  4073,  1166,  1165,  4074, 11749,  4291, 11752, 11750
3584,  1216,  4074,  4075,  1217, 11751, 11753, 11754,  4447
3585,  4074,  1165,  1164,  4075, 11752,  4294, 11755, 11753
3586,  1217,  4075,  4076,  1218, 11754, 11756, 11757,  4450
3587,  4075,  1164,  1163,  4076, 11755,  4297, 11758, 11756
3588,  1218,  4076,  4077,  1219, 11757, 11759, 11760,  4453
3589,  4076,  1163,  1162,  4077, 11758,  4300, 11761, 11759
3590,  1219,  4077,  4078,  1220, 11760, 11762, 11763,  4456
3591,  4077,  1162,  1161,  4078, 11761,  4303, 11764, 11762
3592,  1220,  4078,  4079,  1221, 11763, 11765, 11766,  4459
3593,  4078,  1161,  1160,  4079, 11764,  4306, 11767, 11765
3594,  1221,  4079,  4080,  1222, 11766, 11768, 11769,  4462
3595,  4079,  1160,  1159,  4080, 11767,  4309, 11770, 11768
3596,  1222,  4080,  4081,  1223, 11769, 11771, 11772,  4465
3597,  4080,  1159,  1158,  4081, 11770,  4312, 11773, 11771
3598,  1223,  4081,  3371,    78, 11772, 11774, 11693,  4468
3599,  4081,  1158,    37,  3371, 11773,  4314, 11695, 11774
3600,    72,  3372,  3375,    68, 11698, 11775, 11776,  4382
3601,  3372,   992,   990,  3375, 11701, 10337, 11777, 11775
3602,    25,  3376,  3373,  1108, 11778, 11779, 11703, 11702
3603,  3376,   201,   197,  3373, 11780,  5215, 11705, 11779
3604,    41,  3374,  4082,  3379, 11709, 11781, 11782, 11783
3605,  3374,    82,  3377,  4082, 11706, 11784, 11785, 11781
3606,  3379,  4082,  3378,    39, 11782, 11786, 11787, 11788
3607,  4082,  3377,    79,  3378, 11785, 11789, 11790, 11786
3608,    68,  3375,  4083,  1196, 11776, 11791, 11792,  4372
3609,  3375,   990,  2994,  4083, 11777, 10330, 11793, 11791
3610,  1196,  4083,  3380,    62, 11792, 11794, 11795,  4375
3611,  4083,  2994,   988,  3380, 11793, 10331, 11796, 11794
3612,    24,  3381,  3376,    25, 11797, 11798, 11778,  4216
3613,  3381,   205,   201,  3376, 11799,  5326, 11780, 11798
3614,    39,  3378,  3382,    40, 11787, 11800, 11801,  4244
3615,  3378,    79,    75,  3382, 11790,  4400, 11802, 11800
3616,    62,  3380,  3383,    60, 11795, 11803, 11804,  4365
3617,  3380,   988,   986,  3383, 11796, 10325, 11805, 11803
3618,   205,  3381,  3384,   209, 11799, 11806, 11807,  5380
3619,  3381,    24,    30,  3384, 11797,  4224, 11808, 11806
3620,    40,  3382,  4084,  3385, 11801, 11809, 11810, 11811
3621,  3382,    75,  1201,  4084, 11802,  4392, 11812, 11809
3622,  3385,  4084,  1197,    61, 11810, 11813,  4376, 11814
3623,  4084,  1201,    67,  1197, 11812,  4394,  4374, 11813
3624,    60,  3383,  4085,  1194, 11804, 11815, 11816,  4359
3625,  3383,   986,  2993,  4085, 11805, 10320, 11817, 11815
3626,  1194,  4085,  3386,    58, 11816, 11818, 11819,  4362
3627,  4085,  2993,   984,  3386, 11817, 10321, 11820, 11818
3628,    34,  3387,  4086,  1132, 11821, 11822, 11823,  4229
3629,  3387,   213,  1501,  4086, 11824,  5437, 11825, 11822
3630,  1132,  4086,  3384,    30, 11823, 11826, 11808,  4232
3631,  4086,  1501,   209,  3384, 11825,  5439, 11807, 11826
3632,    40,  3385,  3388,    36, 11811, 11827, 11828,  4245
3633,  3385,    61,    59,  3388, 11814,  4366, 11829, 11827
3634,    58,  3386,  3389,    56, 11819, 11830, 11831,  4356
3635,  3386,   984,   982,  3389, 11820, 10315, 11832, 11830
3636,    38,  3390,  3387,    34, 11833, 11834, 11821,  4241
3637,  3390,   217,   213,  3387, 11835,  5538, 11824, 11834
3638,    36,  3388,  4087,  1134, 11828, 11836, 11837,  4235
3639,  3388,    59,  1195,  4087, 11829,  4361, 11838, 11836
3640,  1134,  4087,  3391,    32, 11837, 11839, 11840,  4238
3641,  4087,  1195,    57,  3391, 11838,  4363, 11841, 11839
3642,   980,  3392,  3389,   982, 11842, 11843, 11832, 10310
3643,  3392,    54,    56,  3389, 11844,  4354, 11831, 11843
3644,    42,  3393,  4088,  1136, 11845, 11846, 11847,  4247
3645,  3393,   218,  1545,  4088, 11848,  5442, 11849, 11846
3646,  1136,  4088,  4089,  1137, 11847, 11850, 11851,  4250
3647,  4088,  1545,  1544,  4089, 11849,  5446, 11852, 11850
3648,  1137,  4089,  4090,  1138, 11851, 11853, 11854,  4253
3649,  4089,  1544,  1543,  4090, 11852,  5449, 11855, 11853
3650,  1138,  4090,  4091,  1139, 11854, 11856, 11857,  4256
3651,  4090,  1543,  1542,  4091, 11855,  5452, 11858, 11856
3652,  1139,  4091,  4092,  1140, 11857, 11859, 11860,  4259
3653,  4091,  1542,  1541,  4092, 11858,  5455, 11861, 11859
3654,  1140,  4092,  4093,  1141, 11860, 11862, 11863,  4262
3655,  4092,  1541,  1540,  4093, 11861,  5458, 11864, 11862
3656,  1141,  4093,  4094,  1142, 11863, 11865, 11866,  4265
3657,  4093,  1540,  1539,  4094, 11864,  5461, 11867, 11865
3658,  1142,  4094,  4095,  1143, 11866, 11868, 11869,  4268
3659,  4094,  1539,  1538,  4095, 11867,  5464, 11870, 11868
3660,  1143,  4095,  4096,  1144, 11869, 11871, 11872,  4271
3661,  4095,  1538,  1537,  4096, 11870,  5467, 11873, 11871
3662,  1144,  4096,  4097,  1145, 11872, 11874, 11875,  4274
3663,  4096,  1537,  1536,  4097, 11873,  5470, 11876, 11874
3664,  1145,  4097,  4098,  1146, 11875, 11877, 11878,  4277
3665,  4097,  1536,  1535,  4098, 11876,  5473, 11879, 11877
3666,  1146,  4098,  4099,  1147, 11878, 11880, 11881,  4280
3667,  4098,  1535,  1534,  4099, 11879,  5476, 11882, 11880
3668,  1147,  4099,  4100,  1148, 11881, 11883, 11884,  4283
3669,  4099,  1534,  1533,  4100, 11882,  5479, 11885, 11883
3670,  1148,  4100,  4101,  1149, 11884, 11886, 11887,  4286
3671,  4100,  1533,  1532,  4101, 11885,  5482, 11888, 11886
3672,  1149,  4101,  4102,  1150, 11887, 11889, 11890,  4289
3673,  4101,  1532,  1531,  4102, 11888,  5485, 11891, 11889
3674,  1150,  4102,  4103,  1151, 11890, 11892, 11893,  4292
3675,  4102,  1531,  1530,  4103, 11891,  5488, 11894, 11892
3676,  1151,  4103,  4104,  1152, 11893, 11895, 11896,  4295
3677,  4103,  1530,  1529,  4104, 11894,  5491, 11897, 11895
3678,  1152,  4104,  4105,  1153, 11896, 11898, 11899,  4298
3679,  4104,  1529,  1528,  4105, 11897,  5494, 11900, 11898
3680,  1153,  4105,  4106,  1154, 11899, 11901, 11902,  4301
3681,  4105,  1528,  1527,  4106, 11900,  5497, 11903, 11901
3682,  1154,  4106,  4107,  1155, 11902, 11904, 11905,  4304
3683,  4106,  1527,  1526,  4107, 11903,  5500, 11906, 11904
3684,  1155,  4107,  4108,  1156, 11905, 11907, 11908,  4307
3685,  4107,  1526,  1525,  4108, 11906,  5503, 11909, 11907
3686,  1156,  4108,  4109,  1157, 11908, 11910, 11911,  4310
3687,  4108,  1525,  1524,  4109, 11909,  5506, 11912, 11910
3688,  1157,  4109,  3390,    38, 11911, 11913, 11833,  4313
3689,  4109,  1524,   217,  3390, 11912,  5509, 11835, 11913
3690,    32,  3391,  3394,    28, 11840, 11914, 11915,  4226
3691,  3391,    57,    55,  3394, 11841,  4357, 11916, 11914
3692,   978,  3395,  3392,   980, 11917, 11918, 11842, 10306
3693,  3395,    52,    54,  3392, 11919,  4351, 11844, 11918
3694,   218,  3393,  4110,  3397, 11848, 11920, 11921, 11922
3695,  3393,    42,  3396,  4110, 11845, 11923, 11924, 11920
3696,  3397,  4110,  1135,    31, 11921, 11925,  4239, 11926
3697,  4110,  3396,    35,  1135, 11924, 11927,  4237, 11925
3698,    53,  3398,  3394,    55, 11928, 11929, 11916,  4352
3699,  3398,    22,    28,  3394, 11930,  4221, 11915, 11929
3700,   977,  3399,  3395,   978, 11931, 11932, 11917, 10302
3701,  3399,    50,    52,  3395, 11933,  4348, 11919, 11932
3702,   218,  3397,  3400,   215, 11922, 11934, 11935,  5443
3703,  3397,    31,    27,  3400, 11926,  4227, 11936, 11934
3704,    51,  3401,  3398,    53, 11937, 11938, 11928,  4349
3705,  3401,    20,    22,  3398, 11939,  4214, 11930, 11938
3706,   975,  3402,  4111,  2992, 11940, 11941, 11942, 10297
3707,  3402,    48,  1193,  4111, 11943,  4342, 11944, 11941
3708,  2992,  4111,  3399,   977, 11942, 11945, 11931, 10299
3709,  4111,  1193,    50,  3399, 11944,  4345, 11933, 11945
3710,    21,  3403,  3400,    27, 11946, 11947, 11936,  4219
3711,  3403,   212,   215,  3400, 11948,  5514, 11935, 11947
3712,    49,  3404,  3401,    51, 11949, 11950, 11937,  4346
3713,  3404,    18,    20,  3401, 11951,  4211, 11939, 11950
3714,   973,  3405,  4112,  2987, 11952, 11953, 11954, 10283
3715,  3405,    44,  1191,  4112, 11955,  4324, 11956, 11953
3716,  2987,  4112,  4113,  2988, 11954, 11957, 11958, 10285
3717,  4112,  1191,  1190,  4113, 11956,  4327, 11959, 11957
3718,  2988,  4113,  4114,  2989, 11958, 11960, 11961, 10287
3719,  4113,  1190,  1189,  4114, 11959,  4330, 11962, 11960
3720,  2989,  4114,  4115,  2990, 11961, 11963, 11964, 10289
3721,  4114,  1189,  1188,  4115, 11962,  4333, 11965, 11963
3722,  2990,  4115,  4116,  2991, 11964, 11966, 11967, 10291
3723,  4115,  1188,  1187,  4116, 11965,  4336, 11968, 11966
3724,  2991,  4116,  3402,   975, 11967, 11969, 11940, 10293
3725,  4116,  1187,    48,  3402, 11968,  4339, 11943, 11969
3726,    19,  3406,  3403,    21, 11970, 11971, 11946,  4212
3727,  3406,   208,   212,  3403, 11972,  5389, 11948, 11971
3728,    47,  3407,  4117,  1192, 11973, 11974, 11975,  4340
3729,  3407,    16,  1131,  4117, 11976,  4205, 11977, 11974
3730,  1192,  4117,  3404,    49, 11975, 11978, 11949,  4343
3731,  4117,  1131,    18,  3404, 11977,  4208, 11951, 11978
3732,   971,  3408,  4118,  2986, 11979, 11980, 11981, 10277
3733,  3408,    45,  1180,  4118, 11982,  4319, 11983, 11980
3734,  2986,  4118,  3405,   973, 11981, 11984, 11952, 10279
3735,  4118,  1180,    44,  3405, 11983,  4316, 11955, 11984
3736,    17,  3409,  3406,    19, 11985, 11986, 11970,  4209
3737,  3409,   204,   208,  3406, 11987,  5335, 11972, 11986
3738,    43,  3410,  4119,  1182, 11988, 11989, 11990,  4322
3739,  3410,    12,  1129,  4119, 11991,  4187, 11992, 11989
3740,  1182,  4119,  4120,  1183, 11990, 11993, 11994,  4325
3741,  4119,  1129,  1128,  4120, 11992,  4190, 11995, 11993
3742,  1183,  4120,  4121,  1184, 11994, 11996, 11997,  4328
3743,  4120,  1128,  1127,  4121, 11995,  4193, 11998, 11996
3744,  1184,  4121,  4122,  1185, 11997, 11999, 12000,  4331
3745,  4121,  1127,  1126,  4122, 11998,  4196, 12001, 11999
3746,  1185,  4122,  4123,  1186, 12000, 12002, 12003,  4334
3747,  4122,  1126,  1125,  4123, 12001,  4199, 12004, 12002
3748,  1186,  4123,  3407,    47, 12003, 12005, 11973,  4337
3749,  4123,  1125,    16,  3407, 12004,  4202, 11976, 12005
3750,    45,  3408,  4124,  3411, 11982, 12006, 12007, 12008
3751,  3408,   971,  2985,  4124, 11979, 10273, 12009, 12006
3752,  3411,  4124,  2984,   966, 12007, 12010, 10265, 12011
3753,  4124,  2985,   968,  2984, 12009, 10274, 10264, 12010
3754,    15,  3412,  4125,  1130, 12012, 12013, 12014,  4203
3755,  3412,   200,  1453,  4125, 12015,  5233, 12016, 12013
3756,  1130,  4125,  3409,    17, 12014, 12017, 11985,  4206
3757,  4125,  1453,   204,  3409, 12016,  5280, 11987, 12017
3758,    46,  3413,  4126,  1181, 12018, 12019, 12020,  4321
3759,  3413,    13,  1118,  4126, 12021,  4182, 12022, 12019
3760,  1181,  4126,  3410,    43, 12020, 12023, 11988,  4318
3761,  4126,  1118,    12,  3410, 12022,  4179, 11991, 12023
3762,    45,  3411,  3414,    46, 12008, 12024, 12025,  4320
3763,  3411,   966,   964,  3414, 12011, 10259, 12026, 12024
3764,    11,  3415,  4127,  1120, 12027, 12028, 12029,  4185
3765,  3415,   195,  1427,  4127, 12030,  4935, 12031, 12028
3766,  1120,  4127,  4128,  1121, 12029, 12032, 12033,  4188
3767,  4127,  1427,  1426,  4128, 12031,  4982, 12034, 12032
3768,  1121,  4128,  4129,  1122, 12033, 12035, 12036,  4191
3769,  4128,  1426,  1425,  4129, 12034,  5029, 12037, 12035
3770,  1122,  4129,  4130,  1123, 12036, 12038, 12039,  4194
3771,  4129,  1425,  1424,  4130, 12037,  5076, 12040, 12038
3772,  1123,  4130,  4131,  1124, 12039, 12041, 12042,  4197
3773,  4130,  1424,  1423,  4131, 12040,  5123, 12043, 12041
3774,  1124,  4131,  3412,    15, 12042, 12044, 12012,  4200
3775,  4131,  1423,   200,  3412, 12043,  5170, 12015, 12044
3776,    46,  3414,  4132,  3413, 12025, 12045, 12046, 12018
3777,  3414,   964,  2982,  4132, 12026, 10252, 12047, 12045
3778,  3413,  4132,  3416,    13, 12046, 12048, 12049, 12021
3779,  4132,  2982,   962,  3416, 12047, 10253, 12050, 12048
3780,    14,  3417,  4133,  1119, 12051, 12052, 12053,  4184
3781,  3417,   196,  1362,  4133, 12054,  4894, 12055, 12052
3782,  1119,  4133,  3415,    11, 12053, 12056, 12027,  4181
3783,  4133,  1362,   195,  3415, 12055,  4897, 12030, 12056
3784,    13,  3416,  3418,    14, 12049, 12057, 12058,  4183
3785,  3416,   962,   960,  3418, 12050, 10247, 12059, 12057
3786,    14,  3418,  4134,  3417, 12058, 12060, 12061, 12051
3787,  3418,   960,  2972,  4134, 12059, 10224, 12062, 12060
3788,  3417,  4134,  3419,   196, 12061, 12063, 12064, 12054
3789,  4134,  2972,   958,  3419, 12062, 10225, 12065, 12063
3790,   196,  3419,  4135,  1363, 12064, 12066, 12067,  4895
3791,  3419,   958,  2971,  4135, 12065, 10176, 12068, 12066
3792,  1363,  4135,  4136,  1364, 12067, 12069, 12070,  4890
3793,  4135,  2971,  2970,  4136, 12068, 10178, 12071, 12069
3794,  1364,  4136,  4137,  1365, 12070, 12072, 12073,  4885
3795,  4136,  2970,  2969,  4137, 12071, 10180, 12074, 12072
3796,  1365,  4137,  4138,  1366, 12073, 12075, 12076,  4880
3797,  4137,  2969,  2968,  4138, 12074, 10182, 12077, 12075
3798,  1366,  4138,  4139,  1367, 12076, 12078, 12079,  4875
3799,  4138,  2968,  2967,  4139, 12077, 10184, 12080, 12078
3800,  1367,  4139,  4140,  1368, 12079, 12081, 12082,  4870
3801,  4139,  2967,  2966,  4140, 12080, 10186, 12083, 12081
3802,  1368,  4140,  4141,  1369, 12082, 12084, 12085,  4865
3803,  4140,  2966,  2965,  4141, 12083, 10188, 12086, 12084
3804,  1369,  4141,  4142,  1370, 12085, 12087, 12088,  4860
3805,  4141,  2965,  2964,  4142, 12086, 10190, 12089, 12087
3806,  1370,  4142,  4143,  1371, 12088, 12090, 12091,  4855
3807,  4142,  2964,  2963,  4143, 12089, 10192, 12092, 12090
3808,  1371,  4143,  4144,  1372, 12091, 12093, 12094,  4850
3809,  4143,  2963,  2962,  4144, 12092, 10194, 12095, 12093
3810,  1372,  4144,  4145,  1373, 12094, 12096, 12097,  4845
3811,  4144,  2962,  2961,  4145, 12095, 10196, 12098, 12096
3812,  1373,  4145,  4146,  1374, 12097, 12099, 12100,  4840
3813,  4145,  2961,  2960,  4146, 12098, 10198, 12101, 12099
3814,  1374,  4146,  4147,  1375, 12100, 12102, 12103,  4835
3815,  4146,  2960,  2959,  4147, 12101, 10200, 12104, 12102
3816,  1375,  4147,  4148,  1376, 12103, 12105, 12106,  4830
3817,  4147,  2959,  2958,  4148, 12104, 10202, 12107, 12105
3818,  1376,  4148,  4149,  1377, 12106, 12108, 12109,  4825
3819,  4148,  2958,  2957,  4149, 12107, 10204, 12110, 12108
3820,  1377,  4149,  4150,  1378, 12109, 12111, 12112,  4820
3821,  4149,  2957,  2956,  4150, 12110, 10206, 12113, 12111
3822,  1378,  4150,  4151,  1379, 12112, 12114, 12115,  4815
3823,  4150,  2956,  2955,  4151, 12113, 10208, 12116, 12114
3824,  1379,  4151,  4152,  1380, 12115, 12117, 12118,  4810
3825,  4151,  2955,  2954,  4152, 12116, 10210, 12119, 12117
3826,  1380,  4152,  4153,  1381, 12118, 12120, 12121,  4805
3827,  4152,  2954,  2953,  4153, 12119, 10212, 12122, 12120
3828,  1381,  4153,  4154,  1382, 12121, 12123, 12124,  4800
3829,  4153,  2953,  2952,  4154, 12122, 10214, 12125, 12123
3830,  1382,  4154,  4155,  1383, 12124, 12126, 12127,  4795
3831,  4154,  2952,  2951,  4155, 12125, 10216, 12128, 12126
3832,  1383,  4155,  4156,  1384, 12127, 12129, 12130,  4790
3833,  4155,  2951,  2950,  4156, 12128, 10218, 12131, 12129
3834,  1384,  4156,  3420,   193, 12130, 12132, 12133,  4784
3835,  4156,  2950,   956,  3420, 12131, 10219, 12134, 12132
3836,   193,  3420,  3421,   190, 12133, 12135, 12136,  4932
3837,  3420,   956,   954,  3421, 12134, 10169, 12137, 12135
3838,   952,  3422,  4157,  2948, 12138, 12139, 12140, 10162
3839,  3422,   191,  1336,  4157, 12141,  4779, 12142, 12139
3840,  2948,  4157,  3421,   954, 12140, 12143, 12137, 10164
3841,  4157,  1336,   190,  3421, 12142,  4774, 12136, 12143
3842,  1109,   939,  2936,  3427, 12144, 10098, 12145, 12146
3843,  3427,  2936,  2935,  3426, 12145, 10100, 12147, 12148
3844,  3426,  2935,  2934,  3425, 12147, 10102, 12149, 12150
3845,  3425,  2934,  2933,  3424, 12149, 10104, 12151, 12152
3846,  3424,  2933,  2932,  3423, 12151, 10106, 12153, 12154
3847,  3423,  2932,   937,     9, 12153, 10107, 12155, 12156
3848,   942,  1110,  3428,  2944, 12157, 12158, 12159, 10137
3849,  2944,  3428,   948,   945, 12159, 12160, 10146, 10136
3850,   192,  1111,  3429,  1385, 12161, 12162, 12163,  4903
3851,  1385,  3429,  3430,  1386, 12163, 12164, 12165,  4908
3852,  1386,  3430,  3431,  1387, 12165, 12166, 12167,  4913
3853,  1387,  3431,  3432,  1388, 12167, 12168, 12169,  4918
3854,  1388,  3432,  3433,  1389, 12169, 12170, 12171,  4923
3855,  1389,  3433,     5,     8, 12171, 12172,  4169,  4928
3856,   191,  3422,  3434,  1112, 12141, 12173, 12174, 12175
3857,  3422,   952,   950,  3434, 12138, 10157, 12176, 12173
3858,  1109,  3427,  3429,  1111, 12146, 12177, 12162, 12178
3859,  3427,  3426,  3430,  3429, 12148, 12179, 12164, 12177
3860,  3426,  3425,  3431,  3430, 12150, 12180, 12166, 12179
3861,  3425,  3424,  3432,  3431, 12152, 12181, 12168, 12180
3862,  3424,  3423,  3433,  3432, 12154, 12182, 12170, 12181
3863,  3423,     9,     5,  3433, 12156,  4175, 12172, 12182
3864,  1110,   942,  2942,  3435, 12157, 10125, 12183, 12184
3865,  3435,  2942,   939,  1109, 12183, 10126, 12144, 12185
3866,   948,  3428,  3434,   950, 12160, 12186, 12176, 10152
3867,  3428,  1110,  1112,  3434, 12158, 12187, 12174, 12186
3868,   191,  1112,  3436,  1337, 12175, 12188, 12189,  4780
3869,  1337,  3436,  1111,   192, 12189, 12190, 12161,  4777
3870,  1111,  3436,  3435,  1109, 12190, 12191, 12185, 12178
3871,  3436,  1112,  1110,  3435, 12188, 12187, 12184, 12191
3872,  1056,   888,   890,  1055, 10827,  9218, 10826, 11385
3873,   430,   432,  1057,   431,  6293, 10866, 10872,  6290
3874,   371,   366,   365,   370,  6039, 12192,  6035, 11526
3875,   366,   290,   287,   365,  6018, 12193,  6014, 12192
3876,   275,  2929,  4158,  2925, 10064, 12194, 12195, 10052
3877,  2929,   173,  2928,  4158, 10065, 10061, 12196, 12194
3878,  2925,  4158,  2927,   933, 12195, 12197, 10059, 10054
3879,  4158,  2928,   936,  2927, 12196, 10062, 10057, 12197
3880,  119,  122,  116,  114, 4547, 4546, 4545, 4543
3881,    82,    81,  3360,  3377,  4401, 11640, 12198, 11784
3882,  3377,  3360,    80,    79, 12198, 11644,  4398, 11789
3883,    42,    41,  3379,  3396,  4246, 11783, 12199, 11923
3884,  3396,  3379,    39,    35, 12199, 11788,  4243, 11927
3885,  214,  216,  211,  210, 5537, 5536, 5512, 5511
3886,   177,   176,  2920,  2882,  4668,  9956, 12200,  9746
3887,  2882,  2920,   175,   174, 12200,  9961,  4665,  9750
3888,   361,   360,  2856,  2877,  5932,  9582, 12201,  9730
3889,  2877,  2856,   359,   358, 12201,  9586,  5929,  9734
3890,   280,   279,  2878,  2919,  5676,  9728, 12202,  9958
3891,  2919,  2878,   278,   277, 12202,  9733,  5673,  9962
3892,   290,   289,   288,   287,  5770,  7750,  5764, 12193
3893,    10,  1117,  2930,   117,  4176, 12203, 10091,  4533
3894,  1117,     9,   937,  2930,  4173, 12155, 10090, 12203
3895,   774,   773,   772,   771,  7653, 12204,  7651,  9219
3896,     2,  1113,  1839,   436,  4163, 12205,  6302,  7664
3897,  1113,     1,   433,  1839,  4159,  8004,  6299, 12205
3898,   406,  1066,  3197,  3440, 10926, 10944, 12206, 12207
3899,  3440,  3197,  3196,  3439, 12206, 10946, 12208, 12209
3900,  3439,  3196,  3195,  3438, 12208, 10948, 12210, 12211
3901,  3438,  3195,  3194,  3437, 12210, 10950, 12212, 12213
3902,  3437,  3194,  1067,  1070, 12212, 10952, 11003, 12214
3903,  1074,  1070,  3243,  3271, 12215, 11002, 12216, 11135
3904,  3271,  3243,  3242,  3272, 12216, 11005, 12217, 11132
3905,  3272,  3242,  3241,  3273, 12217, 11007, 12218, 11129
3906,  3273,  3241,  3240,  3274, 12218, 11009, 12219, 11126
3907,  3274,  3240,  3239,  3275, 12219, 11011, 12220, 11123
3908,  3275,  3239,  3238,  3276, 12220, 11013, 12221, 11120
3909,  3276,  3238,  3237,  3277, 12221, 11015, 12222, 11117
3910,  3277,  3237,  3236,  3278, 12222, 11017, 12223, 11114
3911,  3278,  3236,  3235,  3279, 12223, 11019, 12224, 11111
3912,  3279,  3235,  3234,  3280, 12224, 11021, 12225, 11108
3913,  3280,  3234,  3233,  3281, 12225, 11023, 12226, 11105
3914,  3281,  3233,  3232,  3282, 12226, 11025, 12227, 11102
3915,  3282,  3232,  3231,  3283, 12227, 11027, 12228, 11099
3916,  3283,  3231,  3230,  3284, 12228, 11029, 12229, 11096
3917,  3284,  3230,  3229,  3285, 12229, 11031, 12230, 11093
3918,  3285,  3229,  3228,  3286, 12230, 11033, 12231, 11090
3919,  3286,  3228,  3227,  3287, 12231, 11035, 12232, 11087
3920,  3287,  3227,  3226,  3288, 12232, 11037, 12233, 11084
3921,  3288,  3226,  3225,  3289, 12233, 11039, 12234, 11081
3922,  3289,  3225,  3224,  3290, 12234, 11041, 12235, 11078
3923,  3290,  3224,  3223,  3291, 12235, 11043, 12236, 11075
3924,  3291,  3223,  3222,  3292, 12236, 11045, 12237, 11072
3925,  3292,  3222,  3221,  3293, 12237, 11047, 12238, 11069
3926,  3293,  3221,  1069,  1071, 12238, 11049, 11059, 11066
3927,   407,   406,  3440,  3444,  6222, 12207, 12239, 12240
3928,  3444,  3440,  3439,  3443, 12239, 12209, 12241, 12242
3929,  3443,  3439,  3438,  3442, 12241, 12211, 12243, 12244
3930,  3442,  3438,  3437,  3441, 12243, 12213, 12245, 12246
3931,  3441,  3437,  1070,  1074, 12245, 12214, 12215, 12247
3932,  1075,   407,  3444,  3294, 11203, 12240, 12248, 11171
3933,  3294,  3444,  3443,  3295, 12248, 12242, 12249, 11169
3934,  3295,  3443,  3442,  3296, 12249, 12244, 12250, 11167
3935,  3296,  3442,  3441,  3297, 12250, 12246, 12251, 11165
3936,  3297,  3441,  1074,  1073, 12251, 12247, 11134, 11163
*Nset, nset=fluid
     1,     2,     3,     4,     5,     6,     7,     8,     9,    10,    11,    12,    13,    14,    15,    16
    17,    18,    19,    20,    21,    22,    23,    24,    25,    26,    27,    28,    29,    30,    31,    32
    33,    34,    35,    36,    37,    38,    39,    40,    41,    42,    43,    44,    45,    46,    47,    48
    49,    50,    51,    52,    53,    54,    55,    56,    57,    58,    59,    60,    61,    62,    63,    64
    65,    66,    67,    68,    69,    70,    71,    72,    73,    74,    75,    76,    77,    78,    79,    80
    81,    82,    83,    84,    85,    86,    87,    88,    89,    90,    91,    92,    93,    94,    95,    96
    97,    98,    99,   100,   101,   102,   103,   104,   105,   106,   107,   108,   109,   110,   111,   112
   113,   114,   115,   116,   117,   118,   119,   120,   121,   122,   123,   124,   125,   126,   127,   128
   129,   130,   131,   132,   133,   134,   135,   136,   137,   138,   139,   140,   141,   142,   143,   144
   145,   146,   147,   148,   149,   150,   151,   152,   153,   154,   155,   156,   157,   158,   159,   160
   161,   162,   163,   164,   165,   166,   167,   168,   169,   170,   171,   172,   173,   174,   175,   176
   177,   178,   179,   180,   181,   182,   183,   184,   185,   186,   187,   188,   190,   191,   192,   193
   195,   196,   197,   200,   201,   204,   205,   208,   209,   212,   213,   215,   217,   218,   219,   220
   221,   222,   223,   224,   225,   226,   227,   228,   229,   230,   231,   232,   233,   234,   235,   236
   237,   238,   239,   240,   241,   242,   243,   244,   245,   246,   247,   248,   249,   250,   251,   252
   253,   254,   255,   256,   257,   258,   259,   260,   261,   262,   263,   264,   265,   266,   267,   268
   269,   270,   271,   272,   273,   274,   275,   276,   277,   278,   279,   280,   281,   282,   283,   284
   285,   286,   287,   288,   289,   290,   291,   292,   293,   294,   295,   296,   297,   298,   299,   300
   301,   302,   303,   304,   305,   306,   307,   308,   309,   310,   311,   312,   313,   314,   315,   316
   317,   318,   319,   320,   321,   322,   323,   324,   325,   326,   327,   328,   329,   330,   331,   332
   333,   334,   335,   336,   337,   338,   339,   340,   341,   342,   343,   344,   345,   346,   347,   348
   349,   350,   351,   352,   353,   354,   355,   356,   357,   358,   359,   360,   361,   362,   363,   364
   365,   366,   367,   368,   369,   370,   371,   372,   373,   374,   375,   376,   377,   378,   379,   380
   381,   382,   383,   384,   385,   386,   387,   388,   389,   390,   391,   392,   393,   394,   395,   396
   397,   398,   399,   400,   401,   402,   403,   404,   405,   406,   407,   408,   409,   410,   411,   412
   413,   414,   415,   416,   417,   418,   419,   420,   421,   422,   423,   424,   425,   426,   427,   428
   429,   430,   431,   432,   433,   435,   436,   437,   440,   441,   442,   444,   447,   448,   451,   454
   455,   458,   459,   462,   463,   466,   467,   470,   474,   475,   478,   479,   482,   483,   486,   487
   490,   491,   494,   495,   498,   499,   502,   503,   506,   507,   510,   511,   514,   515,   518,   519
   522,   523,   526,   527,   530,   531,   534,   535,   538,   539,   542,   543,   546,   547,   550,   551
   554,   555,   558,   559,   562,   563,   566,   567,   570,   574,   575,   578,   579,   582,   583,   586
   587,   590,   591,   594,   595,   599,   602,   603,   606,   607,   610,   611,   614,   615,   618,   619
   622,   623,   626,   627,   630,   631,   634,   635,   638,   639,   642,   643,   646,   647,   650,   651
   654,   655,   658,   659,   662,   663,   670,   671,   674,   675,   678,   679,   682,   683,   686,   687
   690,   691,   694,   695,   698,   699,   702,   703,   707,   710,   711,   714,   715,   718,   719,   722
   723,   726,   727,   728,   730,   731,   733,   734,   735,   738,   739,   740,   741,   742,   743,   746
   747,   750,   751,   754,   755,   758,   763,   766,   767,   770,   771,   774,   775,   776,   777,   778
   779,   780,   781,   782,   783,   784,   785,   786,   787,   788,   789,   790,   791,   792,   793,   794
   795,   796,   797,   798,   799,   800,   801,   802,   803,   804,   805,   806,   807,   808,   809,   810
   811,   812,   813,   814,   815,   816,   817,   818,   819,   820,   821,   822,   823,   824,   825,   826
   827,   828,   829,   830,   831,   832,   833,   834,   835,   836,   837,   838,   839,   840,   841,   842
   843,   844,   845,   846,   847,   848,   849,   850,   851,   852,   853,   854,   855,   856,   857,   858
   859,   860,   861,   862,   863,   864,   865,   866,   867,   868,   869,   870,   871,   872,   873,   874
   875,   876,   877,   878,   879,   880,   881,   882,   883,   884,   885,   886,   887,   888,   889,   890
   891,   892,   893,   894,   895,   896,   897,   898,   899,   900,   901,   902,   903,   904,   905,   906
   907,   908,   909,   910,   911,   912,   913,   914,   915,   916,   917,   918,   919,   920,   921,   922
   923,   924,   925,   926,   927,   928,   929,   930,   931,   932,   933,   934,   935,   936,   937,   939
   941,   942,   944,   945,   946,   947,   948,   949,   950,   951,   952,   953,   954,   955,   956,   957
   958,   959,   960,   961,   962,   963,   964,   965,   966,   967,   968,   969,   970,   971,   972,   973
   974,   975,   976,   977,   978,   979,   980,   981,   982,   983,   984,   985,   986,   987,   988,   989
   990,   991,   992,   993,   994,   995,   996,   997,   998,   999,  1000,  1001,  1002,  1003,  1004,  1005
  1006,  1007,  1008,  1009,  1010,  1011,  1012,  1013,  1014,  1015,  1016,  1017,  1018,  1019,  1020,  1021
  1022,  1023,  1024,  1025,  1026,  1027,  1028,  1029,  1030,  1031,  1032,  1033,  1034,  1035,  1036,  1037
  1038,  1039,  1040,  1041,  1042,  1043,  1044,  1045,  1046,  1047,  1048,  1049,  1050,  1051,  1052,  1053
  1054,  1055,  1056,  1057,  1058,  1059,  1060,  1061,  1062,  1063,  1064,  1065,  1066,  1067,  1068,  1069
  1070,  1071,  1072,  1073,  1074,  1075,  1076,  1077,  1078,  1079,  1080,  1081,  1082,  1083,  1084,  1085
  1086,  1087,  1088,  1089,  1090,  1091,  1092,  1093,  1094,  1095,  1096,  1097,  1098,  1099,  1100,  1101
  1102,  1103,  1104,  1105,  1106,  1107,  1108,  1109,  1110,  1111,  1112,  1113,  1114,  1115,  1116,  1117
  1118,  1119,  1120,  1121,  1122,  1123,  1124,  1125,  1126,  1127,  1128,  1129,  1130,  1131,  1132,  1133
  1134,  1135,  1136,  1137,  1138,  1139,  1140,  1141,  1142,  1143,  1144,  1145,  1146,  1147,  1148,  1149
  1150,  1151,  1152,  1153,  1154,  1155,  1156,  1157,  1158,  1159,  1160,  1161,  1162,  1163,  1164,  1165
  1166,  1167,  1168,  1169,  1170,  1171,  1172,  1173,  1174,  1175,  1176,  1177,  1178,  1179,  1180,  1181
  1182,  1183,  1184,  1185,  1186,  1187,  1188,  1189,  1190,  1191,  1192,  1193,  1194,  1195,  1196,  1197
  1198,  1199,  1200,  1201,  1202,  1203,  1204,  1205,  1206,  1207,  1208,  1209,  1210,  1211,  1212,  1213
  1214,  1215,  1216,  1217,  1218,  1219,  1220,  1221,  1222,  1223,  1224,  1225,  1226,  1227,  1228,  1229
  1230,  1231,  1232,  1233,  1234,  1235,  1236,  1237,  1238,  1239,  1240,  1241,  1242,  1243,  1244,  1245
  1246,  1247,  1248,  1249,  1250,  1251,  1252,  1253,  1254,  1255,  1256,  1257,  1258,  1259,  1260,  1261
  1262,  1263,  1264,  1265,  1266,  1267,  1268,  1269,  1270,  1271,  1272,  1273,  1274,  1275,  1276,  1277
  1278,  1279,  1280,  1281,  1282,  1283,  1284,  1285,  1286,  1287,  1288,  1289,  1290,  1291,  1292,  1293
  1294,  1295,  1296,  1297,  1298,  1299,  1300,  1301,  1302,  1303,  1304,  1305,  1306,  1307,  1308,  1309
  1310,  1311,  1312,  1313,  1314,  1315,  1316,  1317,  1318,  1319,  1320,  1321,  1322,  1323,  1324,  1325
  1326,  1327,  1328,  1329,  1330,  1331,  1332,  1333,  1334,  1336,  1337,  1362,  1363,  1364,  1365,  1366
  1367,  1368,  1369,  1370,  1371,  1372,  1373,  1374,  1375,  1376,  1377,  1378,  1379,  1380,  1381,  1382
  1383,  1384,  1385,  1386,  1387,  1388,  1389,  1423,  1424,  1425,  1426,  1427,  1453,  1501,  1524,  1525
  1526,  1527,  1528,  1529,  1530,  1531,  1532,  1533,  1534,  1535,  1536,  1537,  1538,  1539,  1540,  1541
  1542,  1543,  1544,  1545,  1546,  1547,  1548,  1549,  1550,  1551,  1552,  1553,  1554,  1555,  1556,  1557
  1558,  1559,  1560,  1561,  1562,  1563,  1564,  1565,  1566,  1567,  1568,  1569,  1570,  1571,  1572,  1573
  1574,  1575,  1576,  1577,  1578,  1579,  1580,  1581,  1582,  1583,  1584,  1585,  1586,  1587,  1588,  1589
  1590,  1591,  1592,  1593,  1594,  1595,  1596,  1597,  1598,  1599,  1600,  1601,  1602,  1603,  1604,  1605
  1606,  1607,  1608,  1609,  1610,  1611,  1612,  1613,  1614,  1615,  1616,  1617,  1618,  1619,  1620,  1621
  1622,  1623,  1624,  1625,  1626,  1627,  1628,  1629,  1630,  1631,  1632,  1633,  1634,  1635,  1636,  1637
  1638,  1639,  1640,  1641,  1642,  1643,  1644,  1645,  1646,  1647,  1648,  1649,  1650,  1651,  1652,  1653
  1654,  1655,  1656,  1657,  1658,  1659,  1660,  1661,  1662,  1663,  1664,  1665,  1666,  1667,  1668,  1669
  1670,  1671,  1672,  1673,  1674,  1675,  1676,  1677,  1678,  1679,  1680,  1681,  1682,  1683,  1684,  1685
  1686,  1687,  1688,  1689,  1690,  1691,  1692,  1693,  1694,  1695,  1696,  1697,  1698,  1699,  1700,  1701
  1702,  1703,  1704,  1705,  1706,  1707,  1708,  1709,  1710,  1711,  1712,  1713,  1714,  1715,  1716,  1717
  1718,  1719,  1720,  1721,  1722,  1723,  1724,  1725,  1726,  1727,  1728,  1729,  1730,  1731,  1732,  1733
  1734,  1735,  1736,  1737,  1738,  1739,  1740,  1741,  1742,  1743,  1744,  1745,  1746,  1747,  1748,  1749
  1750,  1751,  1752,  1753,  1754,  1755,  1756,  1757,  1758,  1759,  1760,  1761,  1762,  1763,  1764,  1765
  1766,  1767,  1768,  1769,  1770,  1771,  1772,  1773,  1774,  1775,  1776,  1777,  1778,  1779,  1780,  1781
  1782,  1783,  1784,  1785,  1786,  1787,  1788,  1789,  1790,  1791,  1792,  1793,  1794,  1795,  1796,  1797
  1798,  1799,  1800,  1801,  1802,  1803,  1804,  1805,  1806,  1807,  1808,  1809,  1810,  1811,  1812,  1813
  1814,  1815,  1816,  1817,  1818,  1819,  1820,  1821,  1822,  1823,  1824,  1825,  1826,  1827,  1828,  1829
  1830,  1831,  1832,  1833,  1834,  1835,  1836,  1837,  1839,  1845,  1846,  1847,  1848,  1849,  1851,  1858
  1866,  1868,  1870,  1872,  1873,  1876,  1878,  1880,  1882,  1884,  1886,  1887,  1893,  1894,  1895,  1896
  1897,  1898,  1899,  1900,  1927,  1928,  1929,  1930,  1931,  1932,  1933,  1934,  1935,  1936,  1937,  1938
  1939,  1940,  1941,  1942,  1943,  1944,  1945,  1946,  1947,  1948,  1950,  1951,  1954,  1956,  1958,  1959
  1962,  1964,  1966,  1967,  1968,  1969,  1970,  1971,  1972,  1973,  1974,  1975,  1986,  1987,  1990,  1991
  1993,  1995,  1997,  1998,  1999,  2000,  2001,  2008,  2009,  2011,  2014,  2016,  2018,  2019,  2022,  2023
  2024,  2025,  2026,  2027,  2028,  2029,  2030,  2031,  2032,  2033,  2034,  2035,  2036,  2037,  2057,  2058
  2059,  2060,  2062,  2086,  2087,  2088,  2089,  2090,  2091,  2092,  2093,  2094,  2095,  2096,  2097,  2098
  2099,  2100,  2101,  2102,  2103,  2104,  2105,  2106,  2107,  2108,  2109,  2112,  2113,  2116,  2118,  2120
  2122,  2124,  2126,  2128,  2130,  2131,  2134,  2135,  2138,  2162,  2163,  2164,  2165,  2166,  2167,  2168
  2169,  2170,  2171,  2172,  2173,  2174,  2175,  2176,  2177,  2178,  2179,  2180,  2181,  2182,  2183,  2184
  2185,  2186,  2187,  2188,  2189,  2190,  2191,  2192,  2193,  2194,  2195,  2196,  2197,  2198,  2199,  2200
  2201,  2202,  2203,  2204,  2205,  2206,  2233,  2234,  2235,  2236,  2252,  2253,  2254,  2255,  2256,  2257
  2258,  2259,  2260,  2261,  2262,  2263,  2264,  2265,  2266,  2267,  2268,  2269,  2270,  2275,  2276,  2277
  2278,  2292,  2293,  2294,  2295,  2296,  2297,  2298,  2299,  2300,  2301,  2302,  2303,  2304,  2305,  2306
  2307,  2308,  2309,  2310,  2311,  2312,  2313,  2314,  2315,  2316,  2317,  2318,  2319,  2339,  2340,  2341
  2342,  2343,  2344,  2345,  2346,  2347,  2348,  2349,  2350,  2351,  2352,  2353,  2354,  2355,  2356,  2357
  2378,  2380,  2382,  2384,  2385,  2387,  2389,  2391,  2393,  2394,  2395,  2396,  2397,  2398,  2399,  2400
  2401,  2402,  2403,  2404,  2405,  2406,  2407,  2408,  2409,  2410,  2411,  2412,  2413,  2414,  2415,  2416
  2417,  2418,  2419,  2420,  2421,  2422,  2423,  2424,  2425,  2426,  2427,  2428,  2429,  2430,  2431,  2432
  2433,  2434,  2435,  2436,  2437,  2438,  2439,  2440,  2441,  2442,  2443,  2444,  2445,  2446,  2447,  2448
  2449,  2450,  2451,  2452,  2453,  2454,  2455,  2456,  2457,  2458,  2459,  2460,  2461,  2462,  2463,  2464
  2465,  2466,  2467,  2468,  2469,  2470,  2471,  2472,  2473,  2474,  2475,  2476,  2477,  2478,  2479,  2480
  2481,  2482,  2483,  2484,  2485,  2486,  2487,  2488,  2489,  2490,  2491,  2492,  2493,  2494,  2495,  2496
  2497,  2498,  2499,  2500,  2501,  2502,  2503,  2504,  2505,  2506,  2507,  2508,  2509,  2510,  2511,  2512
  2513,  2514,  2515,  2516,  2517,  2518,  2519,  2520,  2521,  2522,  2523,  2524,  2525,  2526,  2527,  2528
  2529,  2530,  2531,  2532,  2533,  2534,  2535,  2536,  2537,  2538,  2539,  2540,  2541,  2542,  2543,  2544
  2545,  2546,  2547,  2548,  2549,  2550,  2551,  2552,  2553,  2554,  2555,  2556,  2557,  2558,  2559,  2560
  2561,  2562,  2563,  2564,  2565,  2566,  2567,  2568,  2569,  2570,  2571,  2572,  2573,  2574,  2575,  2576
  2577,  2578,  2579,  2580,  2581,  2582,  2583,  2584,  2585,  2586,  2587,  2588,  2589,  2590,  2591,  2592
  2593,  2594,  2595,  2596,  2597,  2598,  2599,  2600,  2601,  2602,  2603,  2604,  2605,  2606,  2607,  2608
  2609,  2610,  2611,  2612,  2613,  2614,  2615,  2616,  2617,  2618,  2619,  2620,  2621,  2622,  2623,  2624
  2625,  2626,  2627,  2628,  2629,  2630,  2631,  2632,  2633,  2634,  2635,  2636,  2637,  2638,  2639,  2640
  2641,  2642,  2643,  2644,  2645,  2646,  2647,  2648,  2649,  2650,  2651,  2652,  2653,  2654,  2655,  2656
  2657,  2658,  2659,  2660,  2661,  2662,  2663,  2664,  2665,  2666,  2667,  2668,  2669,  2670,  2671,  2672
  2673,  2674,  2675,  2676,  2677,  2678,  2679,  2680,  2681,  2682,  2683,  2684,  2685,  2686,  2687,  2688
  2689,  2690,  2691,  2692,  2693,  2694,  2695,  2696,  2697,  2698,  2699,  2700,  2701,  2702,  2703,  2704
  2705,  2706,  2707,  2708,  2709,  2710,  2711,  2712,  2713,  2714,  2715,  2716,  2717,  2718,  2719,  2720
  2721,  2722,  2723,  2724,  2725,  2726,  2727,  2728,  2729,  2730,  2731,  2732,  2733,  2734,  2735,  2736
  2737,  2738,  2739,  2740,  2741,  2742,  2743,  2744,  2745,  2746,  2747,  2748,  2749,  2750,  2751,  2752
  2753,  2754,  2755,  2756,  2757,  2758,  2759,  2760,  2761,  2762,  2763,  2764,  2765,  2766,  2767,  2768
  2769,  2770,  2771,  2772,  2773,  2774,  2775,  2776,  2777,  2778,  2779,  2780,  2781,  2782,  2783,  2784
  2785,  2786,  2787,  2788,  2789,  2790,  2791,  2792,  2793,  2794,  2795,  2796,  2797,  2798,  2799,  2800
  2801,  2802,  2803,  2804,  2805,  2806,  2807,  2808,  2809,  2810,  2811,  2812,  2813,  2814,  2815,  2816
  2817,  2818,  2819,  2820,  2821,  2822,  2823,  2824,  2825,  2826,  2827,  2828,  2829,  2830,  2831,  2832
  2833,  2834,  2835,  2836,  2837,  2838,  2839,  2840,  2841,  2842,  2843,  2844,  2845,  2846,  2847,  2848
  2849,  2850,  2851,  2852,  2853,  2854,  2855,  2856,  2857,  2858,  2859,  2860,  2861,  2862,  2863,  2864
  2865,  2866,  2867,  2868,  2869,  2870,  2871,  2872,  2873,  2874,  2875,  2876,  2877,  2878,  2879,  2880
  2881,  2882,  2883,  2884,  2885,  2886,  2887,  2888,  2889,  2890,  2891,  2892,  2893,  2894,  2895,  2896
  2897,  2898,  2899,  2900,  2901,  2902,  2903,  2904,  2905,  2906,  2907,  2908,  2909,  2910,  2911,  2912
  2913,  2914,  2915,  2916,  2917,  2918,  2919,  2920,  2921,  2922,  2923,  2924,  2925,  2926,  2927,  2928
  2929,  2930,  2932,  2933,  2934,  2935,  2936,  2938,  2939,  2940,  2941,  2942,  2944,  2945,  2946,  2947
  2948,  2949,  2950,  2951,  2952,  2953,  2954,  2955,  2956,  2957,  2958,  2959,  2960,  2961,  2962,  2963
  2964,  2965,  2966,  2967,  2968,  2969,  2970,  2971,  2972,  2973,  2974,  2975,  2976,  2977,  2978,  2979
  2980,  2981,  2982,  2983,  2984,  2985,  2986,  2987,  2988,  2989,  2990,  2991,  2992,  2993,  2994,  2995
  2996,  2997,  2998,  2999,  3000,  3001,  3002,  3003,  3004,  3005,  3006,  3007,  3008,  3009,  3010,  3011
  3012,  3013,  3014,  3015,  3016,  3017,  3018,  3019,  3020,  3021,  3022,  3023,  3024,  3025,  3026,  3027
  3028,  3029,  3030,  3031,  3032,  3033,  3034,  3035,  3036,  3037,  3038,  3039,  3040,  3041,  3042,  3043
  3044,  3045,  3046,  3047,  3048,  3049,  3050,  3051,  3052,  3053,  3054,  3055,  3056,  3057,  3058,  3059
  3060,  3061,  3062,  3063,  3064,  3065,  3066,  3067,  3068,  3069,  3070,  3071,  3072,  3073,  3074,  3075
  3076,  3077,  3078,  3079,  3080,  3081,  3082,  3083,  3084,  3085,  3086,  3087,  3088,  3089,  3090,  3091
  3092,  3093,  3094,  3095,  3096,  3097,  3098,  3099,  3100,  3101,  3102,  3103,  3104,  3105,  3106,  3107
  3108,  3109,  3110,  3111,  3112,  3113,  3114,  3115,  3116,  3117,  3118,  3119,  3120,  3121,  3122,  3123
  3124,  3125,  3126,  3127,  3128,  3129,  3130,  3131,  3132,  3133,  3134,  3135,  3136,  3137,  3138,  3139
  3140,  3141,  3142,  3143,  3144,  3145,  3146,  3147,  3148,  3149,  3150,  3151,  3152,  3153,  3154,  3155
  3156,  3157,  3158,  3159,  3160,  3161,  3162,  3163,  3164,  3165,  3166,  3167,  3168,  3169,  3170,  3171
  3172,  3173,  3174,  3175,  3176,  3177,  3178,  3179,  3180,  3181,  3182,  3183,  3184,  3185,  3186,  3187
  3188,  3189,  3190,  3191,  3192,  3193,  3194,  3195,  3196,  3197,  3198,  3199,  3200,  3201,  3202,  3203
  3204,  3205,  3206,  3207,  3208,  3209,  3210,  3211,  3212,  3213,  3214,  3215,  3216,  3217,  3218,  3219
  3220,  3221,  3222,  3223,  3224,  3225,  3226,  3227,  3228,  3229,  3230,  3231,  3232,  3233,  3234,  3235
  3236,  3237,  3238,  3239,  3240,  3241,  3242,  3243,  3244,  3245,  3246,  3247,  3248,  3249,  3250,  3251
  3252,  3253,  3254,  3255,  3256,  3257,  3258,  3259,  3260,  3261,  3262,  3263,  3264,  3265,  3266,  3267
  3268,  3269,  3270,  3271,  3272,  3273,  3274,  3275,  3276,  3277,  3278,  3279,  3280,  3281,  3282,  3283
  3284,  3285,  3286,  3287,  3288,  3289,  3290,  3291,  3292,  3293,  3294,  3295,  3296,  3297,  3298,  3299
  3300,  3301,  3302,  3303,  3304,  3305,  3306,  3307,  3308,  3309,  3310,  3311,  3312,  3313,  3314,  3315
  3316,  3317,  3318,  3319,  3320,  3321,  3322,  3323,  3324,  3325,  3326,  3327,  3328,  3329,  3330,  3331
  3332,  3333,  3334,  3335,  3336,  3337,  3338,  3339,  3340,  3341,  3342,  3343,  3344,  3345,  3346,  3347
  3348,  3349,  3350,  3351,  3352,  3353,  3354,  3355,  3356,  3357,  3358,  3359,  3360,  3361,  3362,  3363
  3364,  3365,  3366,  3367,  3368,  3369,  3370,  3371,  3372,  3373,  3374,  3375,  3376,  3377,  3378,  3379
  3380,  3381,  3382,  3383,  3384,  3385,  3386,  3387,  3388,  3389,  3390,  3391,  3392,  3393,  3394,  3395
  3396,  3397,  3398,  3399,  3400,  3401,  3402,  3403,  3404,  3405,  3406,  3407,  3408,  3409,  3410,  3411
  3412,  3413,  3414,  3415,  3416,  3417,  3418,  3419,  3420,  3421,  3422,  3423,  3424,  3425,  3426,  3427
  3428,  3429,  3430,  3431,  3432,  3433,  3434,  3435,  3436,  3437,  3438,  3439,  3440,  3441,  3442,  3443
  3444,  3612,  3613,  3614,  3615,  3616,  3617,  3618,  3619,  3620,  3621,  3622,  3623,  3624,  3625,  3626
  3627,  3628,  3629,  3630,  3631,  3632,  3633,  3634,  3635,  3636,  3637,  3638,  3639,  3640,  3641,  3642
  3643,  3644,  3645,  3646,  3647,  3648,  3649,  3650,  3651,  3652,  3653,  3654,  3655,  3656,  3657,  3658
  3659,  3660,  3661,  3662,  3663,  3664,  3665,  3666,  3667,  3668,  3669,  3670,  3671,  3672,  3673,  3674
  3675,  3676,  3677,  3678,  3679,  3680,  3681,  3682,  3683,  3684,  3685,  3686,  3687,  3688,  3689,  3690
  3691,  3692,  3693,  3694,  3695,  3696,  3697,  3698,  3699,  3700,  3701,  3702,  3703,  3704,  3705,  3706
  3707,  3708,  3709,  3710,  3711,  3712,  3713,  3714,  3715,  3716,  3717,  3718,  3719,  3720,  3721,  3722
  3723,  3724,  3725,  3726,  3727,  3728,  3729,  3730,  3731,  3732,  3733,  3734,  3735,  3736,  3737,  3738
  3739,  3740,  3741,  3742,  3743,  3744,  3745,  3746,  3747,  3748,  3749,  3750,  3751,  3752,  3753,  3754
  3755,  3756,  3757,  3758,  3759,  3760,  3761,  3762,  3763,  3764,  3765,  3766,  3767,  3768,  3769,  3770
  3771,  3772,  3773,  3774,  3775,  3776,  3777,  3778,  3779,  3780,  3781,  3782,  3783,  3784,  3785,  3786
  3787,  3788,  3789,  3790,  3791,  3792,  3793,  3794,  3795,  3796,  3797,  3798,  3799,  3800,  3801,  3802
  3803,  3804,  3805,  3806,  3807,  3808,  3809,  3810,  3811,  3812,  3813,  3814,  3815,  3816,  3817,  3818
  3819,  3820,  3821,  3822,  3823,  3824,  3825,  3826,  3827,  3828,  3829,  3830,  3831,  3832,  3833,  3834
  3835,  3836,  3837,  3838,  3839,  3840,  3841,  3842,  3843,  3844,  3845,  3846,  3847,  3848,  3849,  3850
  3851,  3852,  3853,  3854,  3855,  3856,  3857,  3858,  3859,  3860,  3861,  3862,  3863,  3864,  3865,  3866
  3867,  3868,  3869,  3870,  3871,  3872,  3873,  3874,  3875,  3876,  3877,  3878,  3879,  3880,  3881,  3882
  3883,  3884,  3885,  3886,  3887,  3888,  3889,  3890,  3891,  3892,  3893,  3894,  3895,  3896,  3897,  3898
  3899,  3900,  3901,  3902,  3903,  3904,  3905,  3906,  3907,  3908,  3909,  3910,  3911,  3912,  3913,  3914
  3915,  3916,  3917,  3918,  3919,  3920,  3921,  3922,  3923,  3924,  3925,  3926,  3927,  3928,  3929,  3930
  3931,  3932,  3933,  3934,  3935,  3936,  3937,  3938,  3939,  3940,  3941,  3942,  3943,  3944,  3945,  3946
  3947,  3948,  3949,  3950,  3951,  3952,  3953,  3954,  3955,  3956,  3957,  3958,  3959,  3960,  3961,  3962
  3963,  3964,  3965,  3966,  3967,  3968,  3969,  3970,  3971,  3972,  3973,  3974,  3975,  3976,  3977,  3978
  3979,  3980,  3981,  3982,  3983,  3984,  3985,  3986,  3987,  3988,  3989,  3990,  3991,  3992,  3993,  3994
  3995,  3996,  3997,  3998,  3999,  4000,  4001,  4002,  4003,  4004,  4005,  4006,  4007,  4008,  4009,  4010
  4011,  4012,  4013,  4014,  4015,  4016,  4017,  4018,  4019,  4020,  4021,  4022,  4023,  4024,  4025,  4026
  4027,  4028,  4029,  4030,  4031,  4032,  4033,  4034,  4035,  4036,  4037,  4038,  4039,  4040,  4041,  4042
  4043,  4044,  4045,  4046,  4047,  4048,  4049,  4050,  4051,  4052,  4053,  4054,  4055,  4056,  4057,  4058
  4059,  4060,  4061,  4062,  4063,  4064,  4065,  4066,  4067,  4068,  4069,  4070,  4071,  4072,  4073,  4074
  4075,  4076,  4077,  4078,  4079,  4080,  4081,  4082,  4083,  4084,  4085,  4086,  4087,  4088,  4089,  4090
  4091,  4092,  4093,  4094,  4095,  4096,  4097,  4098,  4099,  4100,  4101,  4102,  4103,  4104,  4105,  4106
  4107,  4108,  4109,  4110,  4111,  4112,  4113,  4114,  4115,  4116,  4117,  4118,  4119,  4120,  4121,  4122
  4123,  4124,  4125,  4126,  4127,  4128,  4129,  4130,  4131,  4132,  4133,  4134,  4135,  4136,  4137,  4138
  4139,  4140,  4141,  4142,  4143,  4144,  4145,  4146,  4147,  4148,  4149,  4150,  4151,  4152,  4153,  4154
  4155,  4156,  4157,  4158,  4159,  4160,  4161,  4162,  4163,  4164,  4165,  4166,  4167,  4168,  4169,  4170
  4171,  4172,  4173,  4174,  4175,  4176,  4177,  4179,  4181,  4182,  4183,  4184,  4185,  4187,  4188,  4190
  4191,  4193,  4194,  4196,  4197,  4199,  4200,  4202,  4203,  4205,  4206,  4208,  4209,  4211,  4212,  4214
  4216,  4217,  4218,  4219,  4221,  4222,  4224,  4226,  4227,  4229,  4231,  4232,  4233,  4235,  4237,  4238
  4239,  4241,  4242,  4244,  4245,  4247,  4249,  4250,  4252,  4253,  4255,  4256,  4258,  4259,  4261,  4262
  4264,  4265,  4267,  4268,  4270,  4271,  4273,  4274,  4276,  4277,  4279,  4280,  4282,  4283,  4285,  4286
  4288,  4289,  4291,  4292,  4294,  4295,  4297,  4298,  4300,  4301,  4303,  4304,  4306,  4307,  4309,  4310
  4312,  4313,  4314,  4316,  4318,  4319,  4320,  4321,  4322,  4324,  4325,  4327,  4328,  4330,  4331,  4333
  4334,  4336,  4337,  4339,  4340,  4342,  4343,  4345,  4346,  4348,  4349,  4351,  4352,  4354,  4356,  4357
  4359,  4361,  4362,  4363,  4365,  4366,  4368,  4369,  4370,  4372,  4374,  4375,  4376,  4377,  4379,  4381
  4382,  4384,  4386,  4387,  4388,  4390,  4392,  4393,  4394,  4396,  4397,  4399,  4400,  4402,  4404,  4405
  4407,  4408,  4410,  4411,  4413,  4414,  4416,  4417,  4419,  4420,  4422,  4423,  4425,  4426,  4428,  4429
  4431,  4432,  4434,  4435,  4437,  4438,  4440,  4441,  4443,  4444,  4446,  4447,  4449,  4450,  4452,  4453
  4455,  4456,  4458,  4459,  4461,  4462,  4464,  4465,  4467,  4468,  4469,  4470,  4471,  4472,  4473,  4474
  4475,  4476,  4477,  4478,  4479,  4480,  4481,  4482,  4483,  4484,  4485,  4486,  4487,  4488,  4489,  4490
  4491,  4492,  4493,  4494,  4495,  4496,  4497,  4498,  4499,  4500,  4501,  4502,  4503,  4504,  4505,  4506
  4507,  4508,  4509,  4510,  4511,  4512,  4513,  4514,  4515,  4516,  4517,  4518,  4519,  4520,  4521,  4522
  4523,  4524,  4525,  4526,  4527,  4528,  4529,  4530,  4531,  4532,  4533,  4534,  4535,  4536,  4537,  4538
  4539,  4540,  4541,  4542,  4543,  4544,  4545,  4546,  4547,  4548,  4550,  4551,  4552,  4554,  4556,  4557
  4558,  4559,  4561,  4562,  4564,  4565,  4567,  4568,  4570,  4571,  4573,  4574,  4576,  4577,  4579,  4580
  4582,  4583,  4585,  4586,  4588,  4589,  4591,  4592,  4594,  4595,  4597,  4599,  4600,  4602,  4604,  4605
  4606,  4608,  4609,  4611,  4613,  4614,  4615,  4617,  4618,  4620,  4622,  4623,  4624,  4626,  4627,  4629
  4631,  4632,  4633,  4635,  4636,  4638,  4640,  4641,  4642,  4644,  4645,  4647,  4649,  4650,  4651,  4653
  4654,  4656,  4658,  4659,  4660,  4662,  4663,  4664,  4666,  4667,  4669,  4671,  4672,  4674,  4675,  4677
  4678,  4680,  4681,  4683,  4684,  4686,  4687,  4689,  4690,  4692,  4693,  4695,  4696,  4698,  4699,  4701
  4702,  4704,  4705,  4707,  4708,  4710,  4711,  4713,  4714,  4716,  4717,  4719,  4720,  4722,  4723,  4725
  4726,  4728,  4729,  4731,  4732,  4734,  4735,  4736,  4739,  4742,  4743,  4745,  4748,  4749,  4751,  4754
  4755,  4757,  4760,  4761,  4762,  4766,  4767,  4774,  4777,  4779,  4780,  4784,  4790,  4795,  4800,  4805
  4810,  4815,  4820,  4825,  4830,  4835,  4840,  4845,  4850,  4855,  4860,  4865,  4870,  4875,  4880,  4885
  4890,  4894,  4895,  4897,  4898,  4903,  4908,  4913,  4918,  4923,  4928,  4932,  4935,  4982,  5029,  5076
  5123,  5170,  5215,  5233,  5280,  5326,  5335,  5380,  5389,  5437,  5439,  5442,  5443,  5446,  5449,  5452
  5455,  5458,  5461,  5464,  5467,  5470,  5473,  5476,  5479,  5482,  5485,  5488,  5491,  5494,  5497,  5500
  5503,  5506,  5509,  5514,  5538,  5540,  5541,  5542,  5544,  5546,  5547,  5548,  5549,  5551,  5552,  5554
  5555,  5557,  5558,  5560,  5561,  5563,  5564,  5566,  5567,  5569,  5570,  5572,  5573,  5575,  5576,  5578
  5579,  5581,  5582,  5584,  5585,  5587,  5589,  5590,  5592,  5594,  5595,  5596,  5598,  5599,  5601,  5603
  5604,  5605,  5607,  5608,  5610,  5612,  5613,  5614,  5616,  5617,  5619,  5621,  5622,  5623,  5625,  5626
  5628,  5630,  5631,  5632,  5634,  5635,  5637,  5639,  5640,  5641,  5643,  5644,  5646,  5648,  5649,  5650
  5652,  5653,  5655,  5657,  5658,  5659,  5661,  5662,  5664,  5666,  5667,  5668,  5670,  5671,  5672,  5674
  5675,  5677,  5679,  5680,  5682,  5683,  5685,  5686,  5688,  5689,  5691,  5692,  5694,  5695,  5697,  5698
  5700,  5701,  5703,  5704,  5706,  5707,  5709,  5710,  5712,  5713,  5715,  5716,  5718,  5719,  5721,  5722
  5724,  5725,  5727,  5728,  5730,  5731,  5733,  5734,  5736,  5737,  5739,  5740,  5742,  5743,  5744,  5746
  5748,  5749,  5751,  5752,  5754,  5755,  5757,  5758,  5760,  5762,  5763,  5765,  5767,  5768,  5769,  5771
  5773,  5774,  5776,  5778,  5779,  5780,  5782,  5784,  5785,  5786,  5787,  5789,  5790,  5792,  5793,  5795
  5796,  5798,  5799,  5801,  5802,  5804,  5805,  5807,  5808,  5810,  5811,  5813,  5814,  5816,  5817,  5819
  5820,  5822,  5823,  5825,  5827,  5828,  5830,  5832,  5833,  5834,  5836,  5837,  5839,  5841,  5842,  5843
  5845,  5846,  5848,  5850,  5851,  5852,  5854,  5855,  5857,  5859,  5860,  5861,  5863,  5864,  5866,  5868
  5869,  5870,  5872,  5873,  5875,  5877,  5878,  5879,  5881,  5882,  5884,  5886,  5887,  5888,  5890,  5891
  5893,  5895,  5896,  5897,  5899,  5900,  5902,  5904,  5905,  5906,  5908,  5909,  5911,  5913,  5914,  5915
  5917,  5918,  5920,  5922,  5923,  5924,  5926,  5927,  5928,  5930,  5931,  5933,  5935,  5936,  5938,  5939
  5941,  5942,  5944,  5945,  5947,  5948,  5950,  5951,  5953,  5954,  5956,  5957,  5959,  5960,  5962,  5963
  5965,  5966,  5968,  5969,  5971,  5972,  5974,  5975,  5977,  5978,  5980,  5981,  5983,  5984,  5986,  5987
  5989,  5990,  5992,  5993,  5995,  5996,  5998,  5999,  6000,  6001,  6002,  6003,  6004,  6005,  6006,  6007
  6008,  6009,  6010,  6011,  6012,  6013,  6014,  6015,  6016,  6017,  6018,  6019,  6020,  6021,  6024,  6026
  6028,  6030,  6032,  6034,  6037,  6038,  6040,  6042,  6044,  6046,  6047,  6049,  6050,  6052,  6053,  6055
  6056,  6058,  6059,  6061,  6062,  6064,  6065,  6067,  6068,  6070,  6071,  6073,  6074,  6076,  6077,  6079
  6080,  6082,  6083,  6085,  6086,  6088,  6089,  6091,  6092,  6094,  6095,  6097,  6098,  6100,  6101,  6102
  6103,  6105,  6107,  6108,  6110,  6111,  6113,  6114,  6116,  6117,  6118,  6119,  6121,  6122,  6124,  6126
  6128,  6129,  6130,  6132,  6134,  6135,  6136,  6138,  6139,  6141,  6142,  6143,  6145,  6146,  6148,  6149
  6151,  6152,  6154,  6155,  6157,  6158,  6161,  6163,  6164,  6165,  6166,  6168,  6169,  6171,  6172,  6174
  6176,  6178,  6179,  6181,  6182,  6184,  6185,  6187,  6188,  6190,  6191,  6193,  6194,  6196,  6197,  6199
  6200,  6202,  6203,  6205,  6206,  6208,  6209,  6211,  6212,  6214,  6215,  6217,  6218,  6220,  6221,  6223
  6225,  6226,  6227,  6229,  6231,  6233,  6234,  6236,  6237,  6239,  6240,  6242,  6243,  6245,  6246,  6248
  6249,  6251,  6252,  6254,  6255,  6257,  6258,  6259,  6260,  6262,  6263,  6265,  6267,  6268,  6270,  6271
  6273,  6275,  6276,  6277,  6278,  6280,  6282,  6283,  6284,  6286,  6288,  6289,  6291,  6292,  6294,  6295
  6299,  6301,  6302,  6306,  6309,  6310,  6313,  6316,  6319,  6322,  6324,  6330,  6334,  6337,  6340,  6344
  6360,  6370,  6386,  6389,  6393,  6395,  6397,  6402,  6404,  6407,  6410,  6413,  6416,  6417,  6420,  6425
  6428,  6434,  6438,  6440,  6443,  6446,  6447,  6452,  6453,  6458,  6461,  6464,  6467,  6468,  6473,  6476
  6477,  6482,  6483,  6488,  6491,  6494,  6497,  6498,  6501,  6506,  6509,  6512,  6515,  6518,  6521,  6523
  6526,  6529,  6532,  6535,  6540,  6543,  6546,  6549,  6552,  6555,  6558,  6561,  6564,  6567,  6570,  6573
  6576,  6579,  6582,  6585,  6588,  6591,  6594,  6597,  6600,  6603,  6605,  6608,  6612,  6614,  6616,  6619
  6623,  6625,  6630,  6632,  6635,  6638,  6641,  6644,  6648,  6650,  6652,  6655,  6657,  6662,  6666,  6668
  6671,  6674,  6677,  6679,  6684,  6686,  6688,  6691,  6694,  6697,  6700,  6703,  6706,  6709,  6712,  6715
  6719,  6721,  6726,  6728,  6730,  6733,  6737,  6739,  6744,  6746,  6748,  6754,  6756,  6759,  6764,  6767
  6770,  6771,  6774,  6778,  6780,  6783,  6788,  6789,  6792,  6795,  6798,  6801,  6804,  6809,  6812,  6813
  6816,  6822,  6826,  6829,  6831,  6835,  6837,  6842,  6845,  6848,  6852,  6854,  6857,  6860,  6862,  6867
  6869,  6872,  6875,  6878,  6882,  6884,  6886,  6889,  6893,  6895,  6900,  6902,  6904,  6907,  6910,  6913
  6916,  6919,  6922,  6925,  6928,  6931,  6934,  6937,  6940,  6943,  6946,  6949,  6953,  6956,  6959,  6962
  6965,  6968,  6972,  6974,  6977,  6980,  6983,  6986,  6989,  6992,  6995,  6998,  7001,  7004,  7007,  7010
  7013,  7016,  7019,  7022,  7025,  7028,  7031,  7034,  7037,  7040,  7043,  7046,  7049,  7051,  7054,  7059
  7061,  7063,  7067,  7069,  7072,  7077,  7079,  7088,  7091,  7095,  7097,  7100,  7103,  7106,  7110,  7112
  7115,  7118,  7120,  7125,  7127,  7130,  7133,  7136,  7140,  7142,  7145,  7148,  7151,  7154,  7158,  7160
  7166,  7168,  7171,  7176,  7178,  7180,  7184,  7186,  7189,  7194,  7196,  7199,  7202,  7205,  7208,  7211
  7214,  7217,  7220,  7223,  7226,  7229,  7232,  7235,  7238,  7241,  7244,  7247,  7250,  7253,  7256,  7259
  7262,  7265,  7268,  7269,  7272,  7275,  7278,  7281,  7284,  7287,  7290,  7293,  7296,  7299,  7302,  7305
  7308,  7311,  7314,  7317,  7320,  7323,  7326,  7329,  7332,  7335,  7340,  7343,  7346,  7349,  7352,  7353
  7354,  7358,  7361,  7364,  7367,  7370,  7373,  7376,  7379,  7382,  7385,  7388,  7391,  7394,  7397,  7400
  7403,  7404,  7407,  7410,  7413,  7416,  7420,  7421,  7422,  7425,  7428,  7431,  7434,  7439,  7442,  7445
  7448,  7451,  7454,  7457,  7460,  7463,  7466,  7468,  7469,  7471,  7472,  7473,  7476,  7479,  7482,  7485
  7488,  7491,  7494,  7497,  7500,  7503,  7506,  7509,  7512,  7515,  7518,  7521,  7524,  7527,  7530,  7534
  7537,  7540,  7543,  7546,  7549,  7552,  7555,  7558,  7561,  7564,  7567,  7570,  7573,  7576,  7579,  7582
  7585,  7588,  7591,  7596,  7598,  7601,  7604,  7605,  7609,  7614,  7616,  7619,  7622,  7629,  7632,  7636
  7639,  7643,  7646,  7647,  7650,  7654,  7657,  7659,  7660,  7661,  7662,  7663,  7664,  7665,  7666,  7667
  7668,  7669,  7670,  7671,  7672,  7673,  7674,  7675,  7676,  7677,  7678,  7679,  7680,  7681,  7682,  7683
  7684,  7685,  7686,  7687,  7688,  7689,  7690,  7691,  7692,  7693,  7694,  7695,  7696,  7697,  7698,  7699
  7700,  7701,  7702,  7703,  7704,  7705,  7706,  7707,  7708,  7709,  7710,  7711,  7712,  7713,  7714,  7715
  7716,  7717,  7718,  7719,  7720,  7721,  7722,  7723,  7724,  7725,  7726,  7727,  7728,  7729,  7730,  7731
  7732,  7733,  7734,  7735,  7736,  7737,  7738,  7739,  7740,  7741,  7742,  7743,  7744,  7745,  7746,  7747
  7748,  7749,  7750,  7751,  7752,  7753,  7754,  7755,  7756,  7757,  7758,  7759,  7760,  7761,  7762,  7763
  7764,  7765,  7766,  7767,  7768,  7769,  7770,  7771,  7772,  7773,  7774,  7775,  7776,  7777,  7778,  7779
  7780,  7781,  7782,  7783,  7784,  7785,  7786,  7787,  7788,  7789,  7790,  7791,  7792,  7793,  7794,  7795
  7796,  7797,  7798,  7799,  7800,  7801,  7802,  7803,  7804,  7805,  7806,  7807,  7808,  7809,  7810,  7811
  7812,  7813,  7814,  7815,  7816,  7817,  7818,  7819,  7820,  7821,  7822,  7823,  7824,  7825,  7826,  7827
  7828,  7829,  7830,  7831,  7832,  7833,  7834,  7835,  7836,  7837,  7838,  7839,  7840,  7841,  7842,  7843
  7844,  7845,  7846,  7847,  7848,  7849,  7850,  7851,  7852,  7853,  7854,  7855,  7856,  7857,  7858,  7859
  7860,  7861,  7862,  7863,  7864,  7865,  7866,  7867,  7868,  7869,  7870,  7871,  7872,  7873,  7874,  7875
  7876,  7877,  7878,  7879,  7880,  7881,  7882,  7883,  7884,  7885,  7886,  7887,  7888,  7889,  7890,  7891
  7892,  7893,  7894,  7895,  7896,  7897,  7898,  7899,  7900,  7901,  7902,  7903,  7904,  7905,  7906,  7907
  7908,  7909,  7910,  7911,  7912,  7913,  7914,  7915,  7916,  7917,  7918,  7919,  7920,  7921,  7922,  7923
  7924,  7925,  7926,  7927,  7928,  7929,  7930,  7931,  7932,  7933,  7934,  7935,  7936,  7937,  7938,  7939
  7940,  7941,  7942,  7943,  7944,  7945,  7946,  7947,  7948,  7949,  7950,  7951,  7952,  7953,  7954,  7955
  7956,  7957,  7958,  7959,  7960,  7961,  7962,  7963,  7964,  7965,  7966,  7967,  7968,  7969,  7970,  7971
  7972,  7973,  7974,  7975,  7976,  7977,  7978,  7979,  7980,  7981,  7982,  7983,  7984,  7985,  7986,  7987
  7988,  7989,  7990,  7991,  7992,  7993,  7994,  7995,  7996,  7997,  7998,  7999,  8000,  8001,  8002,  8003
  8004,  8005,  8006,  8007,  8008,  8009,  8010,  8011,  8012,  8013,  8014,  8015,  8016,  8017,  8018,  8019
  8020,  8021,  8022,  8023,  8024,  8025,  8026,  8027,  8028,  8029,  8030,  8031,  8032,  8033,  8034,  8035
  8036,  8037,  8038,  8039,  8040,  8041,  8042,  8043,  8044,  8045,  8046,  8047,  8048,  8049,  8050,  8051
  8052,  8053,  8054,  8055,  8056,  8057,  8058,  8059,  8060,  8061,  8062,  8063,  8064,  8065,  8066,  8067
  8068,  8069,  8070,  8071,  8072,  8073,  8074,  8075,  8076,  8077,  8078,  8079,  8080,  8081,  8082,  8083
  8084,  8085,  8086,  8087,  8088,  8089,  8090,  8091,  8092,  8093,  8094,  8095,  8096,  8097,  8098,  8099
  8100,  8101,  8102,  8103,  8104,  8105,  8106,  8107,  8108,  8109,  8110,  8111,  8112,  8113,  8114,  8115
  8116,  8117,  8118,  8119,  8120,  8121,  8122,  8123,  8124,  8125,  8126,  8127,  8128,  8129,  8130,  8131
  8132,  8133,  8134,  8135,  8136,  8137,  8138,  8139,  8140,  8141,  8142,  8143,  8144,  8145,  8146,  8147
  8148,  8149,  8150,  8151,  8152,  8153,  8154,  8155,  8156,  8157,  8158,  8159,  8160,  8161,  8162,  8163
  8164,  8165,  8166,  8167,  8168,  8169,  8170,  8171,  8172,  8173,  8174,  8175,  8176,  8177,  8178,  8179
  8180,  8181,  8182,  8183,  8184,  8185,  8186,  8187,  8188,  8189,  8190,  8191,  8192,  8193,  8194,  8195
  8196,  8197,  8198,  8199,  8200,  8201,  8202,  8203,  8204,  8205,  8206,  8207,  8208,  8209,  8210,  8211
  8212,  8213,  8214,  8215,  8216,  8217,  8218,  8219,  8220,  8221,  8222,  8223,  8224,  8225,  8226,  8227
  8228,  8229,  8230,  8231,  8232,  8233,  8234,  8235,  8236,  8237,  8238,  8239,  8240,  8241,  8242,  8243
  8244,  8245,  8246,  8247,  8248,  8249,  8250,  8251,  8252,  8253,  8254,  8255,  8256,  8257,  8258,  8259
  8260,  8261,  8262,  8263,  8264,  8265,  8266,  8267,  8268,  8269,  8270,  8271,  8272,  8273,  8274,  8275
  8276,  8277,  8278,  8279,  8280,  8281,  8282,  8283,  8284,  8285,  8286,  8287,  8288,  8289,  8290,  8291
  8292,  8293,  8294,  8295,  8296,  8297,  8298,  8299,  8300,  8301,  8302,  8303,  8304,  8305,  8306,  8307
  8308,  8309,  8310,  8311,  8312,  8313,  8314,  8315,  8316,  8317,  8318,  8319,  8320,  8321,  8322,  8323
  8324,  8325,  8326,  8327,  8328,  8329,  8330,  8331,  8332,  8333,  8334,  8335,  8336,  8337,  8338,  8339
  8340,  8341,  8342,  8343,  8344,  8345,  8346,  8347,  8348,  8349,  8350,  8351,  8352,  8353,  8354,  8355
  8356,  8357,  8358,  8359,  8360,  8361,  8362,  8363,  8364,  8365,  8366,  8367,  8368,  8369,  8370,  8371
  8372,  8373,  8374,  8375,  8376,  8377,  8378,  8379,  8380,  8381,  8382,  8383,  8384,  8385,  8386,  8387
  8388,  8389,  8390,  8391,  8392,  8393,  8394,  8395,  8396,  8397,  8398,  8399,  8400,  8401,  8402,  8403
  8404,  8405,  8406,  8407,  8408,  8409,  8410,  8411,  8412,  8413,  8414,  8415,  8416,  8417,  8418,  8419
  8420,  8421,  8422,  8423,  8424,  8425,  8426,  8427,  8428,  8429,  8430,  8431,  8432,  8433,  8434,  8435
  8436,  8437,  8438,  8439,  8440,  8441,  8442,  8443,  8444,  8445,  8446,  8447,  8448,  8449,  8450,  8451
  8452,  8453,  8454,  8455,  8456,  8457,  8458,  8459,  8460,  8461,  8462,  8463,  8464,  8465,  8466,  8467
  8468,  8469,  8470,  8471,  8472,  8473,  8474,  8475,  8476,  8477,  8478,  8479,  8480,  8481,  8482,  8483
  8484,  8485,  8486,  8487,  8488,  8489,  8490,  8491,  8492,  8493,  8494,  8495,  8496,  8497,  8498,  8499
  8500,  8501,  8502,  8503,  8504,  8505,  8506,  8507,  8508,  8509,  8510,  8511,  8512,  8513,  8514,  8515
  8516,  8517,  8518,  8519,  8520,  8521,  8522,  8523,  8524,  8525,  8526,  8527,  8528,  8529,  8530,  8531
  8532,  8533,  8534,  8535,  8536,  8537,  8538,  8539,  8540,  8541,  8542,  8543,  8544,  8545,  8546,  8547
  8548,  8549,  8550,  8551,  8552,  8553,  8554,  8555,  8556,  8557,  8558,  8559,  8560,  8561,  8562,  8563
  8564,  8565,  8566,  8567,  8568,  8569,  8570,  8571,  8572,  8573,  8574,  8575,  8576,  8577,  8578,  8579
  8580,  8581,  8582,  8583,  8584,  8585,  8586,  8587,  8588,  8589,  8590,  8591,  8592,  8593,  8594,  8595
  8596,  8597,  8598,  8599,  8600,  8601,  8602,  8603,  8604,  8605,  8606,  8607,  8608,  8609,  8610,  8611
  8612,  8613,  8614,  8615,  8616,  8617,  8618,  8619,  8620,  8621,  8622,  8623,  8624,  8625,  8626,  8627
  8628,  8629,  8630,  8631,  8632,  8633,  8634,  8635,  8636,  8637,  8638,  8639,  8640,  8641,  8642,  8643
  8644,  8645,  8646,  8647,  8648,  8649,  8650,  8651,  8652,  8653,  8654,  8655,  8656,  8657,  8658,  8659
  8660,  8661,  8662,  8663,  8664,  8665,  8666,  8667,  8668,  8669,  8670,  8671,  8672,  8673,  8674,  8675
  8676,  8677,  8678,  8679,  8680,  8681,  8682,  8683,  8684,  8685,  8686,  8687,  8688,  8689,  8690,  8691
  8692,  8693,  8694,  8695,  8696,  8697,  8698,  8699,  8700,  8701,  8702,  8703,  8704,  8705,  8706,  8707
  8708,  8709,  8710,  8711,  8712,  8713,  8714,  8715,  8716,  8717,  8718,  8719,  8720,  8721,  8722,  8723
  8724,  8725,  8726,  8727,  8728,  8729,  8730,  8731,  8732,  8733,  8734,  8735,  8736,  8737,  8738,  8739
  8740,  8741,  8742,  8743,  8744,  8745,  8746,  8747,  8748,  8749,  8750,  8751,  8752,  8753,  8754,  8755
  8756,  8757,  8758,  8759,  8760,  8761,  8762,  8763,  8764,  8765,  8766,  8767,  8768,  8769,  8770,  8771
  8772,  8773,  8774,  8775,  8776,  8777,  8778,  8779,  8780,  8781,  8782,  8783,  8784,  8785,  8786,  8787
  8788,  8789,  8790,  8791,  8792,  8793,  8794,  8795,  8796,  8797,  8798,  8799,  8800,  8801,  8802,  8803
  8804,  8805,  8806,  8807,  8808,  8809,  8810,  8811,  8812,  8813,  8814,  8815,  8816,  8817,  8818,  8819
  8820,  8821,  8822,  8823,  8824,  8825,  8826,  8827,  8828,  8829,  8830,  8831,  8832,  8833,  8834,  8835
  8836,  8837,  8838,  8839,  8840,  8841,  8842,  8843,  8844,  8845,  8846,  8847,  8848,  8849,  8850,  8851
  8852,  8853,  8854,  8855,  8856,  8857,  8858,  8859,  8860,  8861,  8862,  8863,  8864,  8865,  8866,  8867
  8868,  8869,  8870,  8871,  8872,  8873,  8874,  8875,  8876,  8877,  8878,  8879,  8880,  8881,  8882,  8883
  8884,  8885,  8886,  8887,  8888,  8889,  8890,  8891,  8892,  8893,  8894,  8895,  8896,  8897,  8898,  8899
  8900,  8901,  8902,  8903,  8904,  8905,  8906,  8907,  8908,  8909,  8910,  8911,  8912,  8913,  8914,  8915
  8916,  8917,  8918,  8919,  8920,  8921,  8922,  8923,  8924,  8925,  8926,  8927,  8928,  8929,  8930,  8931
  8932,  8933,  8934,  8935,  8936,  8937,  8938,  8939,  8940,  8941,  8942,  8943,  8944,  8945,  8946,  8947
  8948,  8949,  8950,  8951,  8952,  8953,  8954,  8955,  8956,  8957,  8958,  8959,  8960,  8961,  8962,  8963
  8964,  8965,  8966,  8967,  8968,  8969,  8970,  8971,  8972,  8973,  8974,  8975,  8976,  8977,  8978,  8979
  8980,  8981,  8982,  8983,  8984,  8985,  8986,  8987,  8988,  8989,  8990,  8991,  8992,  8993,  8994,  8995
  8996,  8997,  8998,  8999,  9000,  9001,  9002,  9003,  9004,  9005,  9006,  9007,  9008,  9009,  9010,  9011
  9012,  9013,  9014,  9015,  9016,  9017,  9018,  9019,  9020,  9021,  9022,  9023,  9024,  9025,  9026,  9027
  9028,  9029,  9030,  9031,  9032,  9033,  9034,  9035,  9036,  9037,  9038,  9039,  9040,  9041,  9042,  9043
  9044,  9045,  9046,  9047,  9048,  9049,  9050,  9051,  9052,  9053,  9054,  9055,  9056,  9057,  9058,  9059
  9060,  9061,  9062,  9063,  9064,  9065,  9066,  9067,  9068,  9069,  9070,  9071,  9072,  9073,  9074,  9075
  9076,  9077,  9078,  9079,  9080,  9081,  9082,  9083,  9084,  9085,  9086,  9087,  9088,  9089,  9090,  9091
  9092,  9093,  9094,  9095,  9096,  9097,  9098,  9099,  9100,  9101,  9102,  9103,  9104,  9105,  9106,  9107
  9108,  9109,  9110,  9111,  9112,  9113,  9114,  9115,  9116,  9117,  9118,  9119,  9120,  9121,  9122,  9123
  9124,  9125,  9126,  9127,  9128,  9129,  9130,  9131,  9132,  9133,  9134,  9135,  9136,  9137,  9138,  9139
  9140,  9141,  9142,  9143,  9144,  9145,  9146,  9147,  9148,  9149,  9150,  9151,  9152,  9153,  9154,  9155
  9156,  9157,  9158,  9159,  9160,  9161,  9162,  9163,  9164,  9165,  9166,  9167,  9168,  9169,  9170,  9171
  9172,  9173,  9174,  9175,  9176,  9177,  9178,  9179,  9180,  9181,  9182,  9183,  9184,  9185,  9186,  9187
  9188,  9189,  9190,  9191,  9192,  9193,  9194,  9195,  9196,  9197,  9198,  9199,  9200,  9201,  9202,  9203
  9204,  9205,  9206,  9207,  9208,  9209,  9210,  9211,  9212,  9213,  9214,  9215,  9216,  9217,  9218,  9219
  9220,  9221,  9222,  9223,  9224,  9225,  9226,  9227,  9228,  9229,  9230,  9231,  9232,  9233,  9234,  9235
  9236,  9237,  9238,  9239,  9240,  9241,  9242,  9243,  9244,  9245,  9246,  9247,  9248,  9249,  9250,  9251
  9252,  9253,  9254,  9255,  9256,  9257,  9258,  9259,  9260,  9261,  9262,  9263,  9264,  9265,  9266,  9267
  9268,  9269,  9270,  9271,  9272,  9273,  9274,  9275,  9276,  9277,  9278,  9279,  9280,  9281,  9282,  9283
  9284,  9285,  9286,  9287,  9288,  9289,  9290,  9291,  9292,  9293,  9294,  9295,  9296,  9297,  9298,  9299
  9300,  9301,  9302,  9303,  9304,  9305,  9306,  9307,  9308,  9309,  9310,  9311,  9312,  9313,  9314,  9315
  9316,  9317,  9318,  9319,  9320,  9321,  9322,  9323,  9324,  9325,  9326,  9327,  9328,  9329,  9330,  9331
  9332,  9333,  9334,  9335,  9336,  9337,  9338,  9339,  9340,  9341,  9342,  9343,  9344,  9345,  9346,  9347
  9348,  9349,  9350,  9351,  9352,  9353,  9354,  9355,  9356,  9357,  9358,  9359,  9360,  9361,  9362,  9363
  9364,  9365,  9366,  9367,  9368,  9369,  9370,  9371,  9372,  9373,  9374,  9375,  9376,  9377,  9378,  9379
  9380,  9381,  9382,  9383,  9384,  9385,  9386,  9387,  9388,  9389,  9390,  9391,  9392,  9393,  9394,  9395
  9396,  9397,  9398,  9399,  9400,  9401,  9402,  9403,  9404,  9405,  9406,  9407,  9408,  9409,  9410,  9411
  9412,  9413,  9414,  9415,  9416,  9417,  9418,  9419,  9420,  9421,  9422,  9423,  9424,  9425,  9426,  9427
  9428,  9429,  9430,  9431,  9432,  9433,  9434,  9435,  9436,  9437,  9438,  9439,  9440,  9441,  9442,  9443
  9444,  9445,  9446,  9447,  9448,  9449,  9450,  9451,  9452,  9453,  9454,  9455,  9456,  9457,  9458,  9459
  9460,  9461,  9462,  9463,  9464,  9465,  9466,  9467,  9468,  9469,  9470,  9471,  9472,  9473,  9474,  9475
  9476,  9477,  9478,  9479,  9480,  9481,  9482,  9483,  9484,  9485,  9486,  9487,  9488,  9489,  9490,  9491
  9492,  9493,  9494,  9495,  9496,  9497,  9498,  9499,  9500,  9501,  9502,  9503,  9504,  9505,  9506,  9507
  9508,  9509,  9510,  9511,  9512,  9513,  9514,  9515,  9516,  9517,  9518,  9519,  9520,  9521,  9522,  9523
  9524,  9525,  9526,  9527,  9528,  9529,  9530,  9531,  9532,  9533,  9534,  9535,  9536,  9537,  9538,  9539
  9540,  9541,  9542,  9543,  9544,  9545,  9546,  9547,  9548,  9549,  9550,  9551,  9552,  9553,  9554,  9555
  9556,  9557,  9558,  9559,  9560,  9561,  9562,  9563,  9564,  9565,  9566,  9567,  9568,  9569,  9570,  9571
  9572,  9573,  9574,  9575,  9576,  9577,  9578,  9579,  9580,  9581,  9582,  9583,  9584,  9585,  9586,  9587
  9588,  9589,  9590,  9591,  9592,  9593,  9594,  9595,  9596,  9597,  9598,  9599,  9600,  9601,  9602,  9603
  9604,  9605,  9606,  9607,  9608,  9609,  9610,  9611,  9612,  9613,  9614,  9615,  9616,  9617,  9618,  9619
  9620,  9621,  9622,  9623,  9624,  9625,  9626,  9627,  9628,  9629,  9630,  9631,  9632,  9633,  9634,  9635
  9636,  9637,  9638,  9639,  9640,  9641,  9642,  9643,  9644,  9645,  9646,  9647,  9648,  9649,  9650,  9651
  9652,  9653,  9654,  9655,  9656,  9657,  9658,  9659,  9660,  9661,  9662,  9663,  9664,  9665,  9666,  9667
  9668,  9669,  9670,  9671,  9672,  9673,  9674,  9675,  9676,  9677,  9678,  9679,  9680,  9681,  9682,  9683
  9684,  9685,  9686,  9687,  9688,  9689,  9690,  9691,  9692,  9693,  9694,  9695,  9696,  9697,  9698,  9699
  9700,  9701,  9702,  9703,  9704,  9705,  9706,  9707,  9708,  9709,  9710,  9711,  9712,  9713,  9714,  9715
  9716,  9717,  9718,  9719,  9720,  9721,  9722,  9723,  9724,  9725,  9726,  9727,  9728,  9729,  9730,  9731
  9732,  9733,  9734,  9735,  9736,  9737,  9738,  9739,  9740,  9741,  9742,  9743,  9744,  9745,  9746,  9747
  9748,  9749,  9750,  9751,  9752,  9753,  9754,  9755,  9756,  9757,  9758,  9759,  9760,  9761,  9762,  9763
  9764,  9765,  9766,  9767,  9768,  9769,  9770,  9771,  9772,  9773,  9774,  9775,  9776,  9777,  9778,  9779
  9780,  9781,  9782,  9783,  9784,  9785,  9786,  9787,  9788,  9789,  9790,  9791,  9792,  9793,  9794,  9795
  9796,  9797,  9798,  9799,  9800,  9801,  9802,  9803,  9804,  9805,  9806,  9807,  9808,  9809,  9810,  9811
  9812,  9813,  9814,  9815,  9816,  9817,  9818,  9819,  9820,  9821,  9822,  9823,  9824,  9825,  9826,  9827
  9828,  9829,  9830,  9831,  9832,  9833,  9834,  9835,  9836,  9837,  9838,  9839,  9840,  9841,  9842,  9843
  9844,  9845,  9846,  9847,  9848,  9849,  9850,  9851,  9852,  9853,  9854,  9855,  9856,  9857,  9858,  9859
  9860,  9861,  9862,  9863,  9864,  9865,  9866,  9867,  9868,  9869,  9870,  9871,  9872,  9873,  9874,  9875
  9876,  9877,  9878,  9879,  9880,  9881,  9882,  9883,  9884,  9885,  9886,  9887,  9888,  9889,  9890,  9891
  9892,  9893,  9894,  9895,  9896,  9897,  9898,  9899,  9900,  9901,  9902,  9903,  9904,  9905,  9906,  9907
  9908,  9909,  9910,  9911,  9912,  9913,  9914,  9915,  9916,  9917,  9918,  9919,  9920,  9921,  9922,  9923
  9924,  9925,  9926,  9927,  9928,  9929,  9930,  9931,  9932,  9933,  9934,  9935,  9936,  9937,  9938,  9939
  9940,  9941,  9942,  9943,  9944,  9945,  9946,  9947,  9948,  9949,  9950,  9951,  9952,  9953,  9954,  9955
  9956,  9957,  9958,  9959,  9960,  9961,  9962,  9963,  9964,  9965,  9966,  9967,  9968,  9969,  9970,  9971
  9972,  9973,  9974,  9975,  9976,  9977,  9978,  9979,  9980,  9981,  9982,  9983,  9984,  9985,  9986,  9987
  9988,  9989,  9990,  9991,  9992,  9993,  9994,  9995,  9996,  9997,  9998,  9999, 10000, 10001, 10002, 10003
 10004, 10005, 10006, 10007, 10008, 10009, 10010, 10011, 10012, 10013, 10014, 10015, 10016, 10017, 10018, 10019
 10020, 10021, 10022, 10023, 10024, 10025, 10026, 10027, 10028, 10029, 10030, 10031, 10032, 10033, 10034, 10035
 10036, 10037, 10038, 10039, 10040, 10041, 10042, 10043, 10044, 10045, 10046, 10047, 10048, 10049, 10050, 10051
 10052, 10053, 10054, 10055, 10056, 10057, 10058, 10059, 10060, 10061, 10062, 10063, 10064, 10065, 10090, 10091
 10098, 10100, 10102, 10104, 10106, 10107, 10114, 10116, 10118, 10120, 10122, 10125, 10126, 10133, 10136, 10137
 10140, 10142, 10145, 10146, 10149, 10151, 10152, 10155, 10157, 10159, 10161, 10162, 10164, 10167, 10169, 10171
 10173, 10176, 10178, 10180, 10182, 10184, 10186, 10188, 10190, 10192, 10194, 10196, 10198, 10200, 10202, 10204
 10206, 10208, 10210, 10212, 10214, 10216, 10218, 10219, 10221, 10224, 10225, 10227, 10229, 10231, 10233, 10235
 10237, 10239, 10241, 10243, 10245, 10247, 10249, 10252, 10253, 10255, 10257, 10259, 10261, 10264, 10265, 10267
 10270, 10273, 10274, 10276, 10277, 10279, 10282, 10283, 10285, 10287, 10289, 10291, 10293, 10296, 10297, 10299
 10302, 10305, 10306, 10309, 10310, 10313, 10315, 10317, 10320, 10321, 10323, 10325, 10327, 10330, 10331, 10333
 10335, 10337, 10339, 10342, 10343, 10345, 10347, 10349, 10351, 10353, 10355, 10357, 10359, 10361, 10363, 10365
 10367, 10369, 10371, 10373, 10375, 10378, 10380, 10382, 10384, 10386, 10389, 10390, 10392, 10394, 10396, 10398
 10400, 10402, 10404, 10406, 10408, 10410, 10412, 10414, 10416, 10418, 10420, 10422, 10424, 10426, 10428, 10430
 10432, 10434, 10436, 10438, 10440, 10442, 10444, 10447, 10448, 10451, 10453, 10456, 10457, 10459, 10460, 10462
 10464, 10466, 10468, 10470, 10472, 10474, 10476, 10478, 10480, 10482, 10484, 10486, 10488, 10490, 10492, 10494
 10496, 10498, 10500, 10502, 10504, 10507, 10508, 10511, 10512, 10514, 10517, 10519, 10521, 10522, 10525, 10527
 10528, 10530, 10533, 10535, 10537, 10539, 10541, 10543, 10545, 10547, 10549, 10551, 10553, 10555, 10557, 10559
 10561, 10563, 10565, 10567, 10569, 10571, 10573, 10575, 10577, 10579, 10580, 10583, 10585, 10587, 10589, 10591
 10592, 10594, 10597, 10599, 10601, 10603, 10605, 10607, 10609, 10611, 10613, 10615, 10617, 10619, 10621, 10623
 10625, 10627, 10628, 10631, 10632, 10634, 10637, 10639, 10640, 10643, 10644, 10646, 10649, 10650, 10651, 10654
 10656, 10657, 10659, 10661, 10663, 10665, 10668, 10669, 10671, 10673, 10675, 10677, 10680, 10682, 10684, 10686
 10688, 10690, 10692, 10694, 10696, 10698, 10699, 10702, 10705, 10706, 10708, 10710, 10712, 10713, 10715, 10716
 10717, 10720, 10721, 10723, 10726, 10728, 10730, 10732, 10733, 10735, 10737, 10739, 10741, 10743, 10745, 10747
 10749, 10751, 10753, 10755, 10757, 10759, 10761, 10763, 10765, 10767, 10769, 10771, 10774, 10776, 10778, 10780
 10782, 10784, 10786, 10788, 10790, 10792, 10794, 10796, 10798, 10800, 10802, 10804, 10806, 10808, 10810, 10812
 10815, 10816, 10818, 10820, 10823, 10825, 10828, 10830, 10831, 10832, 10833, 10834, 10835, 10836, 10837, 10838
 10839, 10840, 10841, 10842, 10843, 10844, 10845, 10846, 10847, 10848, 10849, 10850, 10851, 10852, 10853, 10854
 10855, 10856, 10857, 10858, 10859, 10860, 10861, 10862, 10863, 10864, 10865, 10866, 10867, 10868, 10869, 10870
 10871, 10872, 10873, 10874, 10875, 10876, 10877, 10878, 10879, 10880, 10881, 10882, 10883, 10884, 10885, 10886
 10887, 10888, 10889, 10890, 10891, 10892, 10893, 10894, 10895, 10896, 10897, 10898, 10899, 10900, 10901, 10902
 10903, 10904, 10905, 10906, 10907, 10908, 10909, 10910, 10911, 10912, 10913, 10914, 10915, 10916, 10917, 10918
 10919, 10920, 10921, 10922, 10923, 10924, 10925, 10926, 10927, 10928, 10929, 10930, 10931, 10932, 10933, 10934
 10935, 10936, 10937, 10938, 10939, 10940, 10941, 10942, 10943, 10944, 10945, 10946, 10947, 10948, 10949, 10950
 10951, 10952, 10953, 10954, 10955, 10956, 10957, 10958, 10959, 10960, 10961, 10962, 10963, 10964, 10965, 10966
 10967, 10968, 10969, 10970, 10971, 10972, 10973, 10974, 10975, 10976, 10977, 10978, 10979, 10980, 10981, 10982
 10983, 10984, 10985, 10986, 10987, 10988, 10989, 10990, 10991, 10992, 10993, 10994, 10995, 10996, 10997, 10998
 10999, 11000, 11001, 11002, 11003, 11004, 11005, 11006, 11007, 11008, 11009, 11010, 11011, 11012, 11013, 11014
 11015, 11016, 11017, 11018, 11019, 11020, 11021, 11022, 11023, 11024, 11025, 11026, 11027, 11028, 11029, 11030
 11031, 11032, 11033, 11034, 11035, 11036, 11037, 11038, 11039, 11040, 11041, 11042, 11043, 11044, 11045, 11046
 11047, 11048, 11049, 11050, 11051, 11052, 11053, 11054, 11055, 11056, 11057, 11058, 11059, 11060, 11061, 11062
 11063, 11064, 11065, 11066, 11067, 11068, 11069, 11070, 11071, 11072, 11073, 11074, 11075, 11076, 11077, 11078
 11079, 11080, 11081, 11082, 11083, 11084, 11085, 11086, 11087, 11088, 11089, 11090, 11091, 11092, 11093, 11094
 11095, 11096, 11097, 11098, 11099, 11100, 11101, 11102, 11103, 11104, 11105, 11106, 11107, 11108, 11109, 11110
 11111, 11112, 11113, 11114, 11115, 11116, 11117, 11118, 11119, 11120, 11121, 11122, 11123, 11124, 11125, 11126
 11127, 11128, 11129, 11130, 11131, 11132, 11133, 11134, 11135, 11136, 11137, 11138, 11139, 11140, 11141, 11142
 11143, 11144, 11145, 11146, 11147, 11148, 11149, 11150, 11151, 11152, 11153, 11154, 11155, 11156, 11157, 11158
 11159, 11160, 11161, 11162, 11163, 11164, 11165, 11166, 11167, 11168, 11169, 11170, 11171, 11172, 11173, 11174
 11175, 11176, 11177, 11178, 11179, 11180, 11181, 11182, 11183, 11184, 11185, 11186, 11187, 11188, 11189, 11190
 11191, 11192, 11193, 11194, 11195, 11196, 11197, 11198, 11199, 11200, 11201, 11202, 11203, 11204, 11205, 11206
 11207, 11208, 11209, 11210, 11211, 11212, 11213, 11214, 11215, 11216, 11217, 11218, 11219, 11220, 11221, 11222
 11223, 11224, 11225, 11226, 11227, 11228, 11229, 11230, 11231, 11232, 11233, 11234, 11235, 11236, 11237, 11238
 11239, 11240, 11241, 11242, 11243, 11244, 11245, 11246, 11247, 11248, 11249, 11250, 11251, 11252, 11253, 11254
 11255, 11256, 11257, 11258, 11259, 11260, 11261, 11262, 11263, 11264, 11265, 11266, 11267, 11268, 11269, 11270
 11271, 11272, 11273, 11274, 11275, 11276, 11277, 11278, 11279, 11280, 11281, 11282, 11283, 11284, 11285, 11286
 11287, 11288, 11289, 11290, 11291, 11292, 11293, 11294, 11295, 11296, 11297, 11298, 11299, 11300, 11301, 11302
 11303, 11304, 11305, 11306, 11307, 11308, 11309, 11310, 11311, 11312, 11313, 11314, 11315, 11316, 11317, 11318
 11319, 11320, 11321, 11322, 11323, 11324, 11325, 11326, 11327, 11328, 11329, 11330, 11331, 11332, 11333, 11334
 11335, 11336, 11337, 11338, 11339, 11340, 11341, 11342, 11343, 11344, 11345, 11346, 11347, 11348, 11349, 11350
 11351, 11352, 11353, 11354, 11355, 11356, 11357, 11358, 11359, 11360, 11361, 11362, 11363, 11364, 11365, 11366
 11367, 11368, 11369, 11370, 11371, 11372, 11373, 11374, 11375, 11376, 11377, 11378, 11379, 11380, 11381, 11382
 11383, 11384, 11385, 11386, 11387, 11388, 11389, 11390, 11391, 11392, 11393, 11394, 11395, 11396, 11397, 11398
 11399, 11400, 11401, 11402, 11403, 11404, 11405, 11406, 11407, 11408, 11409, 11410, 11411, 11412, 11413, 11414
 11415, 11416, 11417, 11418, 11419, 11420, 11421, 11422, 11423, 11424, 11425, 11426, 11427, 11428, 11429, 11430
 11431, 11432, 11433, 11434, 11435, 11436, 11437, 11438, 11439, 11440, 11441, 11442, 11443, 11444, 11445, 11446
 11447, 11448, 11449, 11450, 11451, 11452, 11453, 11454, 11455, 11456, 11457, 11458, 11459, 11460, 11461, 11462
 11463, 11464, 11465, 11466, 11467, 11468, 11469, 11470, 11471, 11472, 11473, 11474, 11475, 11476, 11477, 11478
 11479, 11480, 11481, 11482, 11483, 11484, 11485, 11486, 11487, 11488, 11489, 11490, 11491, 11492, 11493, 11494
 11495, 11496, 11497, 11498, 11499, 11500, 11501, 11502, 11503, 11504, 11505, 11506, 11507, 11508, 11509, 11510
 11511, 11512, 11513, 11514, 11515, 11516, 11517, 11518, 11519, 11520, 11521, 11522, 11523, 11524, 11525, 11526
 11527, 11528, 11529, 11530, 11531, 11532, 11533, 11534, 11535, 11536, 11537, 11538, 11539, 11540, 11541, 11542
 11543, 11544, 11545, 11546, 11547, 11548, 11549, 11550, 11551, 11552, 11553, 11554, 11555, 11556, 11557, 11558
 11559, 11560, 11561, 11562, 11563, 11564, 11565, 11566, 11567, 11568, 11569, 11570, 11571, 11572, 11573, 11574
 11575, 11576, 11577, 11578, 11579, 11580, 11581, 11582, 11583, 11584, 11585, 11586, 11587, 11588, 11589, 11590
 11591, 11592, 11593, 11594, 11595, 11596, 11597, 11598, 11599, 11600, 11601, 11602, 11603, 11604, 11605, 11606
 11607, 11608, 11609, 11610, 11611, 11612, 11613, 11614, 11615, 11616, 11617, 11618, 11619, 11620, 11621, 11622
 11623, 11624, 11625, 11626, 11627, 11628, 11629, 11630, 11631, 11632, 11633, 11634, 11635, 11636, 11637, 11638
 11639, 11640, 11641, 11642, 11643, 11644, 11645, 11646, 11647, 11648, 11649, 11650, 11651, 11652, 11653, 11654
 11655, 11656, 11657, 11658, 11659, 11660, 11661, 11662, 11663, 11664, 11665, 11666, 11667, 11668, 11669, 11670
 11671, 11672, 11673, 11674, 11675, 11676, 11677, 11678, 11679, 11680, 11681, 11682, 11683, 11684, 11685, 11686
 11687, 11688, 11689, 11690, 11691, 11692, 11693, 11694, 11695, 11696, 11697, 11698, 11699, 11700, 11701, 11702
 11703, 11704, 11705, 11706, 11707, 11708, 11709, 11710, 11711, 11712, 11713, 11714, 11715, 11716, 11717, 11718
 11719, 11720, 11721, 11722, 11723, 11724, 11725, 11726, 11727, 11728, 11729, 11730, 11731, 11732, 11733, 11734
 11735, 11736, 11737, 11738, 11739, 11740, 11741, 11742, 11743, 11744, 11745, 11746, 11747, 11748, 11749, 11750
 11751, 11752, 11753, 11754, 11755, 11756, 11757, 11758, 11759, 11760, 11761, 11762, 11763, 11764, 11765, 11766
 11767, 11768, 11769, 11770, 11771, 11772, 11773, 11774, 11775, 11776, 11777, 11778, 11779, 11780, 11781, 11782
 11783, 11784, 11785, 11786, 11787, 11788, 11789, 11790, 11791, 11792, 11793, 11794, 11795, 11796, 11797, 11798
 11799, 11800, 11801, 11802, 11803, 11804, 11805, 11806, 11807, 11808, 11809, 11810, 11811, 11812, 11813, 11814
 11815, 11816, 11817, 11818, 11819, 11820, 11821, 11822, 11823, 11824, 11825, 11826, 11827, 11828, 11829, 11830
 11831, 11832, 11833, 11834, 11835, 11836, 11837, 11838, 11839, 11840, 11841, 11842, 11843, 11844, 11845, 11846
 11847, 11848, 11849, 11850, 11851, 11852, 11853, 11854, 11855, 11856, 11857, 11858, 11859, 11860, 11861, 11862
 11863, 11864, 11865, 11866, 11867, 11868, 11869, 11870, 11871, 11872, 11873, 11874, 11875, 11876, 11877, 11878
 11879, 11880, 11881, 11882, 11883, 11884, 11885, 11886, 11887, 11888, 11889, 11890, 11891, 11892, 11893, 11894
 11895, 11896, 11897, 11898, 11899, 11900, 11901, 11902, 11903, 11904, 11905, 11906, 11907, 11908, 11909, 11910
 11911, 11912, 11913, 11914, 11915, 11916, 11917, 11918, 11919, 11920, 11921, 11922, 11923, 11924, 11925, 11926
 11927, 11928, 11929, 11930, 11931, 11932, 11933, 11934, 11935, 11936, 11937, 11938, 11939, 11940, 11941, 11942
 11943, 11944, 11945, 11946, 11947, 11948, 11949, 11950, 11951, 11952, 11953, 11954, 11955, 11956, 11957, 11958
 11959, 11960, 11961, 11962, 11963, 11964, 11965, 11966, 11967, 11968, 11969, 11970, 11971, 11972, 11973, 11974
 11975, 11976, 11977, 11978, 11979, 11980, 11981, 11982, 11983, 11984, 11985, 11986, 11987, 11988, 11989, 11990
 11991, 11992, 11993, 11994, 11995, 11996, 11997, 11998, 11999, 12000, 12001, 12002, 12003, 12004, 12005, 12006
 12007, 12008, 12009, 12010, 12011, 12012, 12013, 12014, 12015, 12016, 12017, 12018, 12019, 12020, 12021, 12022
 12023, 12024, 12025, 12026, 12027, 12028, 12029, 12030, 12031, 12032, 12033, 12034, 12035, 12036, 12037, 12038
 12039, 12040, 12041, 12042, 12043, 12044, 12045, 12046, 12047, 12048, 12049, 12050, 12051, 12052, 12053, 12054
 12055, 12056, 12057, 12058, 12059, 12060, 12061, 12062, 12063, 12064, 12065, 12066, 12067, 12068, 12069, 12070
 12071, 12072, 12073, 12074, 12075, 12076, 12077, 12078, 12079, 12080, 12081, 12082, 12083, 12084, 12085, 12086
 12087, 12088, 12089, 12090, 12091, 12092, 12093, 12094, 12095, 12096, 12097, 12098, 12099, 12100, 12101, 12102
 12103, 12104, 12105, 12106, 12107, 12108, 12109, 12110, 12111, 12112, 12113, 12114, 12115, 12116, 12117, 12118
 12119, 12120, 12121, 12122, 12123, 12124, 12125, 12126, 12127, 12128, 12129, 12130, 12131, 12132, 12133, 12134
 12135, 12136, 12137, 12138, 12139, 12140, 12141, 12142, 12143, 12144, 12145, 12146, 12147, 12148, 12149, 12150
 12151, 12152, 12153, 12154, 12155, 12156, 12157, 12158, 12159, 12160, 12161, 12162, 12163, 12164, 12165, 12166
 12167, 12168, 12169, 12170, 12171, 12172, 12173, 12174, 12175, 12176, 12177, 12178, 12179, 12180, 12181, 12182
 12183, 12184, 12185, 12186, 12187, 12188, 12189, 12190, 12191, 12192, 12193, 12194, 12195, 12196, 12197, 12203
 12205, 12206, 12207, 12208, 12209, 12210, 12211, 12212, 12213, 12214, 12240, 12242, 12244, 12246, 12247, 12248
 12249, 12250, 12251
*Elset, elset=fluid
    1,    2,    3,    4,    5,    6,  103,  104,  105,  106,  107,  108,  109,  110,  111,  112
  113,  114,  115,  116,  117,  118,  119,  120,  121,  122,  123,  124,  125,  126,  127,  128
  129,  727,  728,  729,  730,  731,  732,  733,  734,  735,  736, 1292, 1293, 1294, 1295, 1296
 1297, 1298, 1299, 1300, 1301, 1302, 1303, 1304, 1305, 1306, 1307, 1308, 1309, 1310, 1311, 1312
 1313, 1314, 1315, 1316, 1317, 1318, 1319, 1320, 1321, 1322, 1323, 1324, 1325, 1326, 1327, 1328
 1329, 1330, 1331, 1332, 1333, 1334, 1335, 1336, 1337, 1338, 1339, 1340, 1341, 1342, 1343, 1344
 1345, 1346, 1347, 1348, 1349, 1350, 1351, 1352, 1353, 1354, 1355, 1356, 1357, 1358, 1359, 1360
 1361, 1362, 1363, 1364, 1365, 1366, 1367, 1368, 1369, 1370, 1371, 1372, 1373, 1374, 1375, 1376
 1377, 1378, 1379, 1380, 1381, 1382, 1383, 1384, 1385, 1386, 1387, 1388, 1389, 1390, 1391, 1392
 1393, 1394, 1395, 1396, 1397, 1398, 1399, 1400, 1401, 1402, 1403, 1404, 1405, 1406, 1407, 1408
 1409, 1410, 1411, 1412, 1413, 1414, 1415, 1416, 1417, 1418, 1419, 1420, 1421, 1422, 1423, 1424
 1425, 1426, 1427, 1428, 1429, 1430, 1431, 1432, 1433, 1434, 1435, 1436, 1437, 1438, 1439, 1440
 1441, 1442, 1443, 1444, 1445, 1446, 1447, 1448, 1449, 1450, 1451, 1452, 1453, 1454, 1455, 1456
 1457, 1458, 1459, 1460, 1461, 1462, 1463, 1464, 1465, 1466, 1467, 1468, 1469, 1470, 1471, 1472
 1473, 1474, 1475, 1476, 1477, 1478, 1479, 1480, 1481, 1482, 1483, 1484, 1485, 1486, 1487, 1488
 1489, 1490, 1491, 1492, 1493, 1494, 1495, 1496, 1497, 1498, 1499, 1500, 1501, 1502, 1503, 1504
 1505, 1506, 1507, 1508, 1509, 1510, 1511, 1512, 1513, 1514, 1515, 1516, 1517, 1518, 1519, 1520
 1521, 1522, 1523, 1524, 1525, 1526, 1527, 1528, 1529, 1530, 1531, 1532, 1533, 1534, 1535, 1536
 1537, 1538, 1539, 1540, 1541, 1542, 1543, 1544, 1545, 1546, 1547, 1548, 1549, 1550, 1551, 1552
 1553, 1554, 1555, 1556, 1557, 1558, 1559, 1560, 1561, 1562, 1563, 1564, 1565, 1566, 1567, 1568
 1569, 1570, 1571, 1572, 1573, 1574, 1575, 1576, 1577, 1578, 1579, 1580, 1581, 1582, 1583, 1584
 1585, 1586, 1587, 1588, 1589, 1590, 1591, 1592, 1593, 1594, 1595, 1596, 1597, 1598, 1599, 1600
 1601, 1602, 1603, 1604, 1605, 1606, 1607, 1608, 1609, 1610, 1611, 1612, 1613, 1614, 1615, 1616
 1617, 1618, 1619, 1620, 1621, 1622, 1623, 1624, 1625, 1626, 1627, 1628, 1629, 1630, 1631, 1632
 1633, 1634, 1635, 1636, 1637, 1638, 1639, 1640, 1641, 1642, 1643, 1644, 1645, 1646, 1647, 1648
 1649, 1650, 1651, 1652, 1653, 1654, 1655, 1656, 1657, 1658, 1659, 1660, 1661, 1662, 1663, 1664
 1665, 1666, 1667, 1668, 1669, 1670, 1671, 1672, 1673, 1674, 1675, 1676, 1677, 1678, 1679, 1680
 1681, 1682, 1683, 1684, 1685, 1686, 1687, 1688, 1689, 1690, 1691, 1692, 1693, 1694, 1695, 1696
 1697, 1698, 1699, 1700, 1701, 1702, 1703, 1704, 1705, 1706, 1707, 1708, 1709, 1710, 1711, 1712
 1713, 1714, 1715, 1716, 1717, 1718, 1719, 1720, 1721, 1722, 1723, 1724, 1725, 1726, 1727, 1728
 1729, 1730, 1731, 1732, 1733, 1734, 1735, 1736, 1737, 1738, 1739, 1740, 1741, 1742, 1743, 1744
 1745, 1746, 1747, 1748, 1749, 1750, 1751, 1752, 1753, 1754, 1755, 1756, 1757, 1758, 1759, 1760
 1761, 1762, 1763, 1764, 1765, 1766, 1767, 1768, 1769, 1770, 1771, 1772, 1773, 1774, 1775, 1776
 1777, 1778, 1779, 1780, 1781, 1782, 1783, 1784, 1785, 1786, 1787, 1788, 1789, 1790, 1791, 1792
 1793, 1794, 1795, 1796, 1797, 1798, 1799, 1800, 1801, 1802, 1803, 1804, 1805, 1806, 1807, 1808
 1809, 1810, 1811, 1812, 1813, 1814, 1815, 1816, 1817, 1818, 1819, 1820, 1821, 1822, 1823, 1824
 1825, 1826, 1827, 1828, 1829, 1830, 1831, 1832, 1833, 1834, 1835, 1836, 1837, 1838, 1839, 1840
 1841, 1842, 1843, 1844, 1845, 1846, 1847, 1848, 1849, 1850, 1851, 1852, 1853, 1854, 1855, 1856
 1857, 1858, 1859, 1860, 1861, 1862, 1863, 1864, 1865, 1866, 1867, 1868, 1869, 1870, 1871, 1872
 1873, 1874, 1875, 1876, 1877, 1878, 1879, 1880, 1881, 1882, 1883, 1884, 1885, 1886, 1887, 1888
 1889, 1890, 1891, 1892, 1893, 1894, 1895, 1896, 1897, 1898, 1899, 1900, 1901, 1902, 1903, 1904
 1905, 1906, 1907, 1908, 1909, 1910, 1911, 1912, 1913, 1914, 1915, 1916, 1917, 1918, 1919, 1920
 1921, 1922, 1923, 1924, 1925, 1926, 1927, 1928, 1929, 1930, 1931, 1932, 1933, 1934, 1935, 1936
 1937, 1938, 1939, 1940, 1941, 1942, 1943, 1944, 1945, 1946, 1947, 1948, 1949, 1950, 1951, 1952
 1953, 1954, 1955, 1956, 1957, 1958, 1959, 1960, 1961, 1962, 1963, 1964, 1965, 1966, 1967, 1968
 1969, 1970, 1971, 1972, 1973, 1974, 1975, 1976, 1977, 1978, 1979, 1980, 1981, 1982, 1983, 1984
 1985, 1986, 1987, 1988, 1989, 1990, 1991, 1992, 1993, 1994, 1995, 1996, 1997, 1998, 1999, 2000
 2001, 2002, 2003, 2004, 2005, 2006, 2007, 2008, 2009, 2010, 2011, 2012, 2013, 2014, 2015, 2016
 2017, 2018, 2019, 2020, 2021, 2022, 2023, 2024, 2025, 2026, 2027, 2028, 2029, 2030, 2031, 2032
 2033, 2034, 2035, 2036, 2037, 2038, 2039, 2040, 2041, 2042, 2043, 2044, 2045, 2046, 2047, 2048
 2049, 2050, 2051, 2052, 2053, 2054, 2055, 2056, 2057, 2058, 2059, 2060, 2061, 2062, 2063, 2064
 2065, 2066, 2067, 2068, 2069, 2070, 2071, 2072, 2073, 2074, 2075, 2076, 2077, 2078, 2079, 2080
 2081, 2082, 2083, 2084, 2085, 2086, 2087, 2088, 2089, 2090, 2091, 2092, 2093, 2094, 2095, 2096
 2097, 2098, 2099, 2100, 2101, 2102, 2103, 2104, 2105, 2106, 2107, 2108, 2109, 2110, 2111, 2112
 2113, 2114, 2115, 2116, 2117, 2118, 2119, 2120, 2121, 2122, 2123, 2124, 2125, 2126, 2127, 2128
 2129, 2130, 2131, 2132, 2133, 2134, 2135, 2136, 2137, 2138, 2139, 2140, 2141, 2142, 2143, 2144
 2145, 2146, 2147, 2148, 2149, 2150, 2151, 2152, 2153, 2154, 2155, 2156, 2157, 2158, 2159, 2160
 2161, 2162, 2163, 2164, 2165, 2166, 2167, 2168, 2169, 2170, 2171, 2172, 2173, 2174, 2175, 2176
 2177, 2178, 2179, 2180, 2181, 2182, 2183, 2184, 2185, 2186, 2187, 2188, 2189, 2190, 2191, 2192
 2193, 2194, 2195, 2196, 2197, 2198, 2199, 2200, 2201, 2202, 2203, 2204, 2205, 2206, 2207, 2208
 2209, 2210, 2211, 2212, 2213, 2214, 2215, 2216, 2217, 2218, 2219, 2220, 2221, 2222, 2223, 2224
 2225, 2226, 2227, 2228, 2229, 2230, 2231, 2232, 2233, 2234, 2235, 2236, 2237, 2238, 2239, 2240
 2241, 2242, 2243, 2244, 2245, 2246, 2247, 2248, 2249, 2250, 2251, 2252, 2253, 2254, 2255, 2256
 2257, 2258, 2259, 2260, 2261, 2262, 2263, 2264, 2265, 2266, 2267, 2268, 2269, 2270, 2271, 2272
 2273, 2274, 2275, 2276, 2277, 2278, 2279, 2280, 2281, 2282, 2283, 2284, 2285, 2286, 2287, 2288
 2289, 2290, 2291, 2292, 2293, 2294, 2295, 2296, 2297, 2298, 2299, 2300, 2301, 2302, 2303, 2304
 2305, 2306, 2307, 2308, 2309, 2310, 2311, 2312, 2313, 2314, 2315, 2316, 2317, 2318, 2319, 2320
 2321, 2322, 2323, 2324, 2325, 2326, 2327, 2328, 2329, 2330, 2331, 2332, 2333, 2334, 2335, 2336
 2337, 2338, 2339, 2340, 2341, 2342, 2343, 2344, 2345, 2346, 2347, 2348, 2349, 2350, 2351, 2352
 2353, 2354, 2355, 2356, 2357, 2358, 2359, 2360, 2361, 2362, 2363, 2364, 2365, 2366, 2367, 2368
 2369, 2370, 2371, 2372, 2373, 2374, 2375, 2376, 2377, 2378, 2379, 2380, 2381, 2382, 2383, 2384
 2385, 2386, 2387, 2388, 2389, 2390, 2391, 2392, 2393, 2394, 2395, 2396, 2397, 2398, 2399, 2400
 2401, 2402, 2403, 2404, 2405, 2406, 2407, 2408, 2409, 2410, 2411, 2412, 2413, 2414, 2415, 2416
 2417, 2418, 2419, 2420, 2421, 2422, 2423, 2424, 2425, 2426, 2427, 2428, 2429, 2430, 2431, 2432
 2433, 2434, 2435, 2436, 2437, 2438, 2439, 2440, 2441, 2442, 2443, 2444, 2445, 2446, 2447, 2448
 2449, 2450, 2451, 2452, 2453, 2454, 2455, 2456, 2457, 2458, 2459, 2460, 2461, 2462, 2463, 2464
 2465, 2466, 2467, 2468, 2469, 2470, 2471, 2472, 2473, 2474, 2475, 2476, 2477, 2478, 2479, 2480
 2481, 2482, 2483, 2484, 2485, 2486, 2487, 2488, 2489, 2490, 2491, 2492, 2493, 2494, 2495, 2496
 2497, 2498, 2499, 2500, 2501, 2502, 2503, 2504, 2505, 2506, 2507, 2508, 2509, 2510, 2511, 2512
 2513, 2514, 2515, 2516, 2517, 2518, 2519, 2520, 2521, 2522, 2523, 2524, 2525, 2526, 2527, 2528
 2529, 2530, 2531, 2532, 2533, 2534, 2535, 2536, 2537, 2538, 2539, 2540, 2541, 2542, 2543, 2544
 2545, 2546, 2547, 2548, 2549, 2550, 2551, 2552, 2553, 2554, 2555, 2556, 2557, 2558, 2559, 2560
 2561, 2562, 2563, 2564, 2565, 2566, 2567, 2568, 2569, 2570, 2571, 2572, 2573, 2574, 2575, 2576
 2577, 2578, 2579, 2580, 2581, 2582, 2583, 2584, 2585, 2586, 2587, 2588, 2589, 2590, 2591, 2592
 2593, 2594, 2595, 2596, 2597, 2598, 2599, 2600, 2601, 2602, 2603, 2604, 2605, 3003, 3004, 3005
 3006, 3007, 3008, 3009, 3010, 3011, 3012, 3013, 3014, 3015, 3016, 3017, 3018, 3019, 3020, 3021
 3022, 3023, 3024, 3025, 3026, 3027, 3028, 3029, 3030, 3031, 3032, 3033, 3034, 3035, 3036, 3037
 3038, 3039, 3040, 3041, 3042, 3043, 3044, 3045, 3046, 3047, 3048, 3049, 3050, 3051, 3052, 3053
 3054, 3055, 3056, 3057, 3058, 3059, 3060, 3061, 3062, 3063, 3064, 3065, 3066, 3067, 3068, 3069
 3070, 3071, 3072, 3073, 3074, 3075, 3076, 3077, 3078, 3079, 3080, 3081, 3082, 3083, 3084, 3085
 3086, 3087, 3088, 3089, 3090, 3091, 3092, 3093, 3094, 3095, 3096, 3097, 3098, 3099, 3100, 3101
 3102, 3103, 3104, 3105, 3106, 3107, 3108, 3109, 3110, 3111, 3112, 3113, 3114, 3115, 3116, 3117
 3118, 3119, 3120, 3121, 3122, 3123, 3124, 3125, 3126, 3127, 3128, 3129, 3130, 3131, 3132, 3133
 3134, 3135, 3136, 3137, 3138, 3139, 3140, 3141, 3142, 3143, 3144, 3145, 3146, 3147, 3148, 3149
 3150, 3151, 3152, 3153, 3154, 3155, 3156, 3157, 3158, 3159, 3160, 3161, 3162, 3163, 3164, 3165
 3166, 3167, 3168, 3169, 3170, 3171, 3172, 3173, 3174, 3175, 3176, 3177, 3178, 3179, 3180, 3181
 3182, 3183, 3184, 3185, 3186, 3187, 3188, 3189, 3190, 3191, 3192, 3193, 3194, 3195, 3196, 3197
 3198, 3199, 3200, 3201, 3202, 3203, 3204, 3205, 3206, 3207, 3208, 3209, 3210, 3211, 3212, 3213
 3214, 3215, 3216, 3217, 3218, 3219, 3220, 3221, 3222, 3223, 3224, 3225, 3226, 3227, 3228, 3229
 3230, 3231, 3232, 3233, 3234, 3235, 3236, 3237, 3238, 3239, 3240, 3241, 3242, 3243, 3244, 3245
 3246, 3247, 3248, 3249, 3250, 3251, 3252, 3253, 3254, 3255, 3256, 3257, 3258, 3259, 3260, 3261
 3262, 3263, 3264, 3265, 3266, 3267, 3268, 3269, 3270, 3271, 3272, 3273, 3274, 3275, 3276, 3277
 3278, 3279, 3280, 3281, 3282, 3283, 3284, 3285, 3286, 3287, 3288, 3289, 3290, 3291, 3292, 3293
 3294, 3295, 3296, 3297, 3298, 3299, 3300, 3301, 3302, 3303, 3304, 3305, 3306, 3307, 3308, 3309
 3310, 3311, 3312, 3313, 3314, 3315, 3316, 3317, 3318, 3319, 3320, 3321, 3322, 3323, 3324, 3325
 3326, 3327, 3328, 3329, 3330, 3331, 3332, 3333, 3334, 3335, 3336, 3337, 3338, 3339, 3340, 3341
 3342, 3343, 3344, 3345, 3346, 3347, 3348, 3349, 3350, 3351, 3352, 3353, 3354, 3355, 3356, 3357
 3358, 3359, 3360, 3361, 3362, 3363, 3364, 3365, 3366, 3367, 3368, 3369, 3370, 3371, 3372, 3373
 3374, 3375, 3376, 3377, 3378, 3379, 3380, 3381, 3382, 3383, 3384, 3385, 3386, 3387, 3388, 3389
 3390, 3391, 3392, 3393, 3394, 3395, 3396, 3397, 3398, 3399, 3400, 3401, 3402, 3403, 3404, 3405
 3406, 3407, 3408, 3409, 3410, 3411, 3412, 3413, 3414, 3415, 3416, 3417, 3418, 3419, 3420, 3421
 3422, 3423, 3424, 3425, 3426, 3427, 3428, 3429, 3430, 3431, 3432, 3433, 3434, 3435, 3436, 3437
 3438, 3439, 3440, 3441, 3442, 3443, 3444, 3445, 3446, 3447, 3448, 3449, 3450, 3451, 3452, 3453
 3454, 3455, 3456, 3457, 3458, 3459, 3460, 3461, 3462, 3463, 3464, 3465, 3466, 3467, 3468, 3469
 3470, 3471, 3472, 3473, 3474, 3475, 3476, 3477, 3478, 3479, 3480, 3481, 3482, 3483, 3484, 3485
 3486, 3487, 3488, 3489, 3490, 3491, 3492, 3493, 3494, 3495, 3496, 3497, 3498, 3499, 3500, 3501
 3502, 3503, 3504, 3505, 3506, 3507, 3508, 3509, 3510, 3511, 3512, 3513, 3514, 3515, 3516, 3517
 3518, 3519, 3520, 3521, 3522, 3523, 3524, 3525, 3526, 3527, 3528, 3529, 3530, 3531, 3532, 3533
 3534, 3535, 3536, 3537, 3538, 3539, 3540, 3541, 3542, 3543, 3544, 3545, 3546, 3547, 3548, 3549
 3550, 3551, 3552, 3553, 3554, 3555, 3556, 3557, 3558, 3559, 3560, 3561, 3562, 3563, 3564, 3565
 3566, 3567, 3568, 3569, 3570, 3571, 3572, 3573, 3574, 3575, 3576, 3577, 3578, 3579, 3580, 3581
 3582, 3583, 3584, 3585, 3586, 3587, 3588, 3589, 3590, 3591, 3592, 3593, 3594, 3595, 3596, 3597
 3598, 3599, 3600, 3601, 3602, 3603, 3604, 3605, 3606, 3607, 3608, 3609, 3610, 3611, 3612, 3613
 3614, 3615, 3616, 3617, 3618, 3619, 3620, 3621, 3622, 3623, 3624, 3625, 3626, 3627, 3628, 3629
 3630, 3631, 3632, 3633, 3634, 3635, 3636, 3637, 3638, 3639, 3640, 3641, 3642, 3643, 3644, 3645
 3646, 3647, 3648, 3649, 3650, 3651, 3652, 3653, 3654, 3655, 3656, 3657, 3658, 3659, 3660, 3661
 3662, 3663, 3664, 3665, 3666, 3667, 3668, 3669, 3670, 3671, 3672, 3673, 3674, 3675, 3676, 3677
 3678, 3679, 3680, 3681, 3682, 3683, 3684, 3685, 3686, 3687, 3688, 3689, 3690, 3691, 3692, 3693
 3694, 3695, 3696, 3697, 3698, 3699, 3700, 3701, 3702, 3703, 3704, 3705, 3706, 3707, 3708, 3709
 3710, 3711, 3712, 3713, 3714, 3715, 3716, 3717, 3718, 3719, 3720, 3721, 3722, 3723, 3724, 3725
 3726, 3727, 3728, 3729, 3730, 3731, 3732, 3733, 3734, 3735, 3736, 3737, 3738, 3739, 3740, 3741
 3742, 3743, 3744, 3745, 3746, 3747, 3748, 3749, 3750, 3751, 3752, 3753, 3754, 3755, 3756, 3757
 3758, 3759, 3760, 3761, 3762, 3763, 3764, 3765, 3766, 3767, 3768, 3769, 3770, 3771, 3772, 3773
 3774, 3775, 3776, 3777, 3778, 3779, 3780, 3781, 3782, 3783, 3784, 3785, 3786, 3787, 3788, 3789
 3790, 3791, 3792, 3793, 3794, 3795, 3796, 3797, 3798, 3799, 3800, 3801, 3802, 3803, 3804, 3805
 3806, 3807, 3808, 3809, 3810, 3811, 3812, 3813, 3814, 3815, 3816, 3817, 3818, 3819, 3820, 3821
 3822, 3823, 3824, 3825, 3826, 3827, 3828, 3829, 3830, 3831, 3832, 3833, 3834, 3835, 3836, 3837
 3838, 3839, 3840, 3841, 3842, 3843, 3844, 3845, 3846, 3847, 3848, 3849, 3850, 3851, 3852, 3853
 3854, 3855, 3856, 3857, 3858, 3859, 3860, 3861, 3862, 3863, 3864, 3865, 3866, 3867, 3868, 3869
 3870, 3871, 3875, 3876, 3877, 3878, 3879, 3880, 3893, 3894, 3896, 3897, 3898, 3899, 3900, 3901
 3902, 3932, 3933, 3934, 3935, 3936
*Nset, nset=Set-2
     3,     4,     7,     8,    11,    12,    13,    14,    15,    16,    17,    18,    19,    20,    21,    22
    23,    24,    25,    26,    27,    28,    29,    30,    31,    32,    33,    34,    35,    36,    37,    38
    39,    40,    41,    42,    43,    44,    45,    46,    47,    48,    49,    50,    51,    52,    53,    54
    55,    56,    57,    58,    59,    60,    61,    62,    63,    64,    65,    66,    67,    68,    69,    70
    71,    72,    73,    74,    75,    76,    77,    78,    79,    80,    81,    82,    83,    84,    85,    86
    87,    88,    89,    90,    91,    92,    93,    94,    95,    96,    97,    98,    99,   100,   101,   102
   103,   104,   105,   106,   107,   108,   109,   110,   111,   112,   113,   115,   117,   118,   120,   121
   123,   124,   125,   126,   127,   128,   129,   130,   131,   132,   133,   134,   135,   136,   137,   138
   139,   140,   141,   142,   143,   144,   145,   146,   147,   148,   149,   150,   151,   152,   153,   154
   155,   156,   157,   158,   159,   160,   161,   162,   163,   164,   165,   166,   167,   168,   169,   170
   171,   172,   173,   174,   175,   176,   177,   178,   179,   180,   181,   182,   183,   184,   185,   186
   187,   188,   189,   190,   191,   192,   193,   194,   195,   196,   197,   198,   199,   200,   201,   202
   203,   204,   205,   206,   207,   208,   209,   210,   211,   212,   213,   214,   215,   216,   217,   218
   219,   220,   221,   222,   223,   224,   225,   226,   227,   228,   229,   230,   231,   232,   233,   234
   235,   236,   237,   238,   239,   240,   241,   242,   243,   244,   245,   246,   247,   248,   249,   250
   251,   252,   253,   254,   255,   256,   257,   258,   259,   260,   261,   262,   263,   264,   265,   266
   267,   268,   269,   270,   271,   272,   273,   274,   275,   276,   277,   278,   279,   280,   281,   282
   283,   284,   285,   286,   287,   288,   289,   290,   291,   292,   293,   294,   295,   296,   297,   298
   299,   300,   301,   302,   303,   304,   305,   306,   307,   308,   309,   310,   311,   312,   313,   314
   315,   316,   317,   318,   319,   320,   321,   322,   323,   324,   325,   326,   327,   328,   329,   330
   331,   332,   333,   334,   335,   336,   337,   338,   339,   340,   341,   342,   343,   344,   345,   346
   347,   348,   349,   350,   351,   352,   353,   354,   355,   356,   357,   358,   359,   360,   361,   362
   363,   364,   365,   366,   367,   368,   369,   370,   371,   372,   373,   374,   375,   376,   377,   378
   379,   380,   381,   382,   383,   384,   385,   386,   387,   388,   389,   390,   391,   392,   393,   394
   395,   396,   397,   398,   399,   400,   401,   402,   403,   404,   405,   406,   407,   408,   409,   410
   411,   412,   413,   414,   415,   416,   417,   418,   419,   420,   421,   422,   423,   424,   425,   426
   427,   428,   429,   430,   431,   432,   433,   434,   435,   436,   437,   438,   439,   440,   441,   442
   443,   444,   445,   446,   447,   448,   449,   450,   451,   452,   453,   454,   455,   456,   457,   458
   459,   460,   461,   462,   463,   464,   465,   466,   467,   468,   469,   470,   471,   472,   473,   474
   475,   476,   477,   478,   479,   480,   481,   482,   483,   484,   485,   486,   487,   488,   489,   490
   491,   492,   493,   494,   495,   496,   497,   498,   499,   500,   501,   502,   503,   504,   505,   506
   507,   508,   509,   510,   511,   512,   513,   514,   515,   516,   517,   518,   519,   520,   521,   522
   523,   524,   525,   526,   527,   528,   529,   530,   531,   532,   533,   534,   535,   536,   537,   538
   539,   540,   541,   542,   543,   544,   545,   546,   547,   548,   549,   550,   551,   552,   553,   554
   555,   556,   557,   558,   559,   560,   561,   562,   563,   564,   565,   566,   567,   568,   569,   570
   571,   572,   573,   574,   575,   576,   577,   578,   579,   580,   581,   582,   583,   584,   585,   586
   587,   588,   589,   590,   591,   592,   593,   594,   595,   596,   597,   598,   599,   600,   601,   602
   603,   604,   605,   606,   607,   608,   609,   610,   611,   612,   613,   614,   615,   616,   617,   618
   619,   620,   621,   622,   623,   624,   625,   626,   627,   628,   629,   630,   631,   632,   633,   634
   635,   636,   637,   638,   639,   640,   641,   642,   643,   644,   645,   646,   647,   648,   649,   650
   651,   652,   653,   654,   655,   656,   657,   658,   659,   660,   661,   662,   663,   664,   665,   666
   667,   668,   669,   670,   671,   672,   673,   674,   675,   676,   677,   678,   679,   680,   681,   682
   683,   684,   685,   686,   687,   688,   689,   690,   691,   692,   693,   694,   695,   696,   697,   698
   699,   700,   701,   702,   703,   704,   705,   706,   707,   708,   709,   710,   711,   712,   713,   714
   715,   716,   717,   718,   719,   720,   721,   722,   723,   724,   725,   726,   727,   728,   729,   730
   731,   732,   733,   734,   735,   736,   737,   738,   739,   740,   741,   742,   743,   744,   745,   746
   747,   748,   749,   750,   751,   752,   753,   754,   755,   756,   757,   758,   759,   760,   761,   762
   763,   764,   765,   766,   767,   768,   769,   770,   771,   772,   773,   774,   775,   776,   777,   778
   779,   780,   781,   782,   783,   784,   785,   786,   787,   788,   789,   790,   791,   792,   793,   794
   795,   796,   797,   798,   799,   800,   801,   802,   803,   804,   805,   806,   807,   808,   809,   810
   811,   812,   813,   814,   815,   816,   817,   818,   819,   821,   822,   823,   824,   825,   826,   827
   828,   829,   830,   831,   832,   833,   834,   835,   836,   837,   838,   839,   840,   841,   842,   843
   844,   845,   846,   847,   848,   849,   850,   851,   852,   853,   854,   855,   856,   857,   858,   860
   861,   862,   863,   865,   866,   868,   869,   871,   872,   873,   874,   875,   876,   877,   878,   879
   880,   881,   882,   883,   884,   885,   886,   887,   888,   889,   890,   891,   892,   893,   894,   895
   896,   897,   898,   899,   900,   901,   902,   903,   905,   906,   907,   909,   910,   912,   913,   915
   916,   918,   919,   921,   922,   924,   925,   927,   929,   930,   931,   932,   934,   935,   937,   938
   939,   940,   941,   942,   943,   944,   945,   946,   947,   948,   949,   950,   951,   952,   953,   954
   955,   956,   957,   958,   959,   960,   961,   962,   963,   964,   965,   966,   967,   968,   969,   970
   971,   972,   973,   974,   975,   976,   977,   978,   979,   980,   981,   982,   983,   984,   985,   986
   987,   988,   989,   990,   991,   992,   993,   994,   995,   996,   997,   998,   999,  1000,  1001,  1002
  1003,  1004,  1005,  1006,  1007,  1008,  1009,  1010,  1011,  1012,  1013,  1014,  1015,  1016,  1017,  1018
  1019,  1020,  1021,  1022,  1023,  1024,  1025,  1026,  1027,  1028,  1029,  1030,  1031,  1032,  1033,  1034
  1035,  1036,  1037,  1038,  1039,  1040,  1041,  1042,  1043,  1044,  1045,  1046,  1047,  1048,  1049,  1050
  1051,  1052,  1053,  1054,  1055,  1056,  1057,  1069,  1070,  1071,  1074,  1114,  1116,  1118,  1119,  1120
  1121,  1122,  1123,  1124,  1125,  1126,  1127,  1128,  1129,  1130,  1131,  1132,  1133,  1134,  1135,  1136
  1137,  1138,  1139,  1140,  1141,  1142,  1143,  1144,  1145,  1146,  1147,  1148,  1149,  1150,  1151,  1152
  1153,  1154,  1155,  1156,  1157,  1158,  1159,  1160,  1161,  1162,  1163,  1164,  1165,  1166,  1167,  1168
  1169,  1170,  1171,  1172,  1173,  1174,  1175,  1176,  1177,  1178,  1179,  1180,  1181,  1182,  1183,  1184
  1185,  1186,  1187,  1188,  1189,  1190,  1191,  1192,  1193,  1194,  1195,  1196,  1197,  1198,  1199,  1200
  1201,  1202,  1203,  1204,  1205,  1206,  1207,  1208,  1209,  1210,  1211,  1212,  1213,  1214,  1215,  1216
  1217,  1218,  1219,  1220,  1221,  1222,  1223,  1224,  1225,  1226,  1227,  1228,  1229,  1230,  1231,  1232
  1233,  1234,  1235,  1236,  1237,  1238,  1239,  1240,  1241,  1242,  1243,  1244,  1245,  1246,  1247,  1248
  1249,  1250,  1251,  1252,  1253,  1254,  1255,  1256,  1257,  1258,  1259,  1260,  1261,  1262,  1263,  1264
  1265,  1266,  1267,  1268,  1269,  1270,  1271,  1272,  1273,  1274,  1275,  1276,  1277,  1278,  1279,  1280
  1281,  1282,  1283,  1284,  1285,  1286,  1287,  1288,  1289,  1290,  1291,  1292,  1293,  1294,  1295,  1296
  1297,  1298,  1299,  1300,  1301,  1302,  1303,  1304,  1305,  1306,  1307,  1308,  1309,  1310,  1311,  1312
  1313,  1314,  1315,  1316,  1317,  1318,  1319,  1320,  1321,  1322,  1323,  1324,  1325,  1326,  1327,  1328
  1329,  1330,  1331,  1332,  1333,  1334,  1335,  1336,  1337,  1338,  1339,  1340,  1341,  1342,  1343,  1344
  1345,  1346,  1347,  1348,  1349,  1350,  1351,  1352,  1353,  1354,  1355,  1356,  1357,  1358,  1359,  1360
  1361,  1362,  1363,  1364,  1365,  1366,  1367,  1368,  1369,  1370,  1371,  1372,  1373,  1374,  1375,  1376
  1377,  1378,  1379,  1380,  1381,  1382,  1383,  1384,  1385,  1386,  1387,  1388,  1389,  1390,  1391,  1392
  1393,  1394,  1395,  1396,  1397,  1398,  1399,  1400,  1401,  1402,  1403,  1404,  1405,  1406,  1407,  1408
  1409,  1410,  1411,  1412,  1413,  1414,  1415,  1416,  1417,  1418,  1419,  1420,  1421,  1422,  1423,  1424
  1425,  1426,  1427,  1428,  1429,  1430,  1431,  1432,  1433,  1434,  1435,  1436,  1437,  1438,  1439,  1440
  1441,  1442,  1443,  1444,  1445,  1446,  1447,  1448,  1449,  1450,  1451,  1452,  1453,  1454,  1455,  1456
  1457,  1458,  1459,  1460,  1461,  1462,  1463,  1464,  1465,  1466,  1467,  1468,  1469,  1470,  1471,  1472
  1473,  1474,  1475,  1476,  1477,  1478,  1479,  1480,  1481,  1482,  1483,  1484,  1485,  1486,  1487,  1488
  1489,  1490,  1491,  1492,  1493,  1494,  1495,  1496,  1497,  1498,  1499,  1500,  1501,  1502,  1503,  1504
  1505,  1506,  1507,  1508,  1509,  1510,  1511,  1512,  1513,  1514,  1515,  1516,  1517,  1518,  1519,  1520
  1521,  1522,  1523,  1524,  1525,  1526,  1527,  1528,  1529,  1530,  1531,  1532,  1533,  1534,  1535,  1536
  1537,  1538,  1539,  1540,  1541,  1542,  1543,  1544,  1545,  1546,  1547,  1548,  1549,  1550,  1551,  1552
  1553,  1554,  1555,  1556,  1557,  1558,  1559,  1560,  1561,  1562,  1563,  1564,  1565,  1566,  1567,  1568
  1569,  1570,  1571,  1572,  1573,  1574,  1575,  1576,  1577,  1578,  1579,  1580,  1581,  1582,  1583,  1584
  1585,  1586,  1587,  1588,  1589,  1590,  1591,  1592,  1593,  1594,  1595,  1596,  1597,  1598,  1599,  1600
  1601,  1602,  1603,  1604,  1605,  1606,  1607,  1608,  1609,  1610,  1611,  1612,  1613,  1614,  1615,  1616
  1617,  1618,  1619,  1620,  1621,  1622,  1623,  1624,  1625,  1626,  1627,  1628,  1629,  1630,  1631,  1632
  1633,  1634,  1635,  1636,  1637,  1638,  1639,  1640,  1641,  1642,  1643,  1644,  1645,  1646,  1647,  1648
  1649,  1650,  1651,  1652,  1653,  1654,  1655,  1656,  1657,  1658,  1659,  1660,  1661,  1662,  1663,  1664
  1665,  1666,  1667,  1668,  1669,  1670,  1671,  1672,  1673,  1674,  1675,  1676,  1677,  1678,  1679,  1680
  1681,  1682,  1683,  1684,  1685,  1686,  1687,  1688,  1689,  1690,  1691,  1692,  1693,  1694,  1695,  1696
  1697,  1698,  1699,  1700,  1701,  1702,  1703,  1704,  1705,  1706,  1707,  1708,  1709,  1710,  1711,  1712
  1713,  1714,  1715,  1716,  1717,  1718,  1719,  1720,  1721,  1722,  1723,  1724,  1725,  1726,  1727,  1728
  1729,  1730,  1731,  1732,  1733,  1734,  1735,  1736,  1737,  1738,  1739,  1740,  1741,  1742,  1743,  1744
  1745,  1746,  1747,  1748,  1749,  1750,  1751,  1752,  1753,  1754,  1755,  1756,  1757,  1758,  1759,  1760
  1761,  1762,  1763,  1764,  1765,  1766,  1767,  1768,  1769,  1770,  1771,  1772,  1773,  1774,  1775,  1776
  1777,  1778,  1779,  1780,  1781,  1782,  1783,  1784,  1785,  1786,  1787,  1788,  1789,  1790,  1791,  1792
  1793,  1794,  1795,  1796,  1797,  1798,  1799,  1800,  1801,  1802,  1803,  1804,  1805,  1806,  1807,  1808
  1809,  1810,  1811,  1812,  1813,  1814,  1815,  1816,  1817,  1818,  1819,  1820,  1821,  1822,  1823,  1824
  1825,  1826,  1827,  1828,  1829,  1830,  1831,  1832,  1833,  1834,  1835,  1836,  1837,  1838,  1839,  1840
  1841,  1842,  1843,  1844,  1845,  1846,  1847,  1848,  1849,  1850,  1851,  1852,  1853,  1854,  1855,  1856
  1857,  1858,  1859,  1860,  1861,  1862,  1863,  1864,  1865,  1866,  1867,  1868,  1869,  1870,  1871,  1872
  1873,  1874,  1875,  1876,  1877,  1878,  1879,  1880,  1881,  1882,  1883,  1884,  1885,  1886,  1887,  1888
  1889,  1890,  1891,  1892,  1893,  1894,  1895,  1896,  1897,  1898,  1899,  1900,  1901,  1902,  1903,  1904
  1905,  1906,  1907,  1908,  1909,  1910,  1911,  1912,  1913,  1914,  1915,  1916,  1917,  1918,  1919,  1920
  1921,  1922,  1923,  1924,  1925,  1926,  1927,  1928,  1929,  1930,  1931,  1932,  1933,  1934,  1935,  1936
  1937,  1938,  1939,  1940,  1941,  1942,  1943,  1944,  1945,  1946,  1947,  1948,  1949,  1950,  1951,  1952
  1953,  1954,  1955,  1956,  1957,  1958,  1959,  1960,  1961,  1962,  1963,  1964,  1965,  1966,  1967,  1968
  1969,  1970,  1971,  1972,  1973,  1974,  1975,  1976,  1977,  1978,  1979,  1980,  1981,  1982,  1983,  1984
  1985,  1986,  1987,  1988,  1989,  1990,  1991,  1992,  1993,  1994,  1995,  1996,  1997,  1998,  1999,  2000
  2001,  2002,  2003,  2004,  2005,  2006,  2007,  2008,  2009,  2010,  2011,  2012,  2013,  2014,  2015,  2016
  2017,  2018,  2019,  2020,  2021,  2022,  2023,  2024,  2025,  2026,  2027,  2028,  2029,  2030,  2031,  2032
  2033,  2034,  2035,  2036,  2037,  2038,  2039,  2040,  2041,  2042,  2043,  2044,  2045,  2046,  2047,  2048
  2049,  2050,  2051,  2052,  2053,  2054,  2055,  2056,  2057,  2058,  2059,  2060,  2061,  2062,  2063,  2064
  2065,  2066,  2067,  2068,  2069,  2070,  2071,  2072,  2073,  2074,  2075,  2076,  2077,  2078,  2079,  2080
  2081,  2082,  2083,  2084,  2085,  2086,  2087,  2088,  2089,  2090,  2091,  2092,  2093,  2094,  2095,  2096
  2097,  2098,  2099,  2100,  2101,  2102,  2103,  2104,  2105,  2106,  2107,  2108,  2109,  2110,  2111,  2112
  2113,  2114,  2115,  2116,  2117,  2118,  2119,  2120,  2121,  2122,  2123,  2124,  2125,  2126,  2127,  2128
  2129,  2130,  2131,  2132,  2133,  2134,  2135,  2136,  2137,  2138,  2139,  2140,  2141,  2142,  2143,  2144
  2145,  2146,  2147,  2148,  2149,  2150,  2151,  2152,  2153,  2154,  2155,  2156,  2157,  2158,  2159,  2160
  2161,  2162,  2163,  2164,  2165,  2166,  2167,  2168,  2169,  2170,  2171,  2172,  2173,  2174,  2175,  2176
  2177,  2178,  2179,  2180,  2181,  2182,  2183,  2184,  2185,  2186,  2187,  2188,  2189,  2190,  2191,  2192
  2193,  2194,  2195,  2196,  2197,  2198,  2199,  2200,  2201,  2202,  2203,  2204,  2205,  2206,  2207,  2208
  2209,  2210,  2211,  2212,  2213,  2214,  2215,  2216,  2217,  2218,  2219,  2220,  2221,  2222,  2223,  2224
  2225,  2226,  2227,  2228,  2229,  2230,  2231,  2232,  2233,  2234,  2235,  2236,  2237,  2238,  2239,  2240
  2241,  2242,  2243,  2244,  2245,  2246,  2247,  2248,  2249,  2250,  2251,  2252,  2253,  2254,  2255,  2256
  2257,  2258,  2259,  2260,  2261,  2262,  2263,  2264,  2265,  2266,  2267,  2268,  2269,  2270,  2271,  2272
  2273,  2274,  2275,  2276,  2277,  2278,  2279,  2280,  2281,  2282,  2283,  2284,  2285,  2286,  2287,  2288
  2289,  2290,  2291,  2292,  2293,  2294,  2295,  2296,  2297,  2298,  2299,  2300,  2301,  2302,  2303,  2304
  2305,  2306,  2307,  2308,  2309,  2310,  2311,  2312,  2313,  2314,  2315,  2316,  2317,  2318,  2319,  2320
  2321,  2322,  2323,  2324,  2325,  2326,  2327,  2328,  2329,  2330,  2331,  2332,  2333,  2334,  2335,  2336
  2337,  2338,  2339,  2340,  2341,  2342,  2343,  2344,  2345,  2346,  2347,  2348,  2349,  2350,  2351,  2352
  2353,  2354,  2355,  2356,  2357,  2358,  2359,  2360,  2361,  2362,  2363,  2364,  2365,  2366,  2367,  2368
  2369,  2370,  2371,  2372,  2373,  2374,  2375,  2376,  2377,  2378,  2379,  2380,  2381,  2382,  2383,  2384
  2385,  2386,  2387,  2388,  2389,  2390,  2391,  2392,  2398,  2401,  2404,  2407,  2410,  2418,  2419,  2420
  2421,  2424,  2427,  2430,  2433,  2436,  2437,  2438,  2439,  2440,  2441,  2442,  2443,  2444,  2447,  2464
  2470,  2471,  2472,  2473,  2474,  2477,  2479,  2480,  2481,  2482,  2483,  2484,  2485,  2486,  2487,  2488
  2489,  2490,  2491,  2492,  2493,  2496,  2497,  2498,  2499,  2502,  2503,  2504,  2505,  2506,  2507,  2508
  2509,  2510,  2511,  2512,  2513,  2514,  2515,  2516,  2517,  2518,  2519,  2520,  2521,  2522,  2523,  2524
  2527,  2529,  2552,  2560,  2563,  2564,  2565,  2566,  2567,  2568,  2569,  2570,  2571,  2572,  2573,  2574
  2575,  2576,  2577,  2578,  2579,  2580,  2581,  2582,  2583,  2584,  2587,  2588,  2589,  2590,  2591,  2592
  2593,  2594,  2595,  2596,  2597,  2598,  2599,  2600,  2601,  2602,  2603,  2604,  2605,  2606,  2607,  2608
  2609,  2612,  2617,  2618,  2619,  2620,  2627,  2628,  2629,  2630,  2631,  2632,  2633,  2634,  2635,  2636
  2637,  2638,  2639,  2640,  2641,  2645,  2648,  2655,  2659,  2672,  2673,  2674,  2675,  2676,  2677,  2678
  2679,  2680,  2693,  2699,  2703,  2708,  2712,  2713,  2714,  2715,  2716,  2717,  2718,  2719,  2720,  2721
  2722,  2723,  2724,  2725,  2726,  2727,  2728,  2729,  2730,  2733,  2734,  2735,  2736,  2737,  2741,  2744
  2763,  2772,  2775,  2784,  2795,  2798,  2804,  2805,  2806,  2807,  2808,  2809,  2810,  2811,  2812,  2813
  2814,  2815,  2816,  2817,  2818,  2819,  2820,  2821,  2822,  2831,  2834,  2839,  2844,  2845,  2846,  2847
  2856,  2858,  2859,  2860,  2861,  2867,  2877,  2878,  2879,  2882,  2883,  2887,  2888,  2889,  2890,  2891
  2892,  2893,  2894,  2895,  2896,  2897,  2898,  2899,  2900,  2901,  2902,  2903,  2904,  2905,  2906,  2907
  2908,  2913,  2916,  2919,  2920,  2922,  2926,  2930,  2931,  2932,  2933,  2934,  2935,  2936,  2937,  2938
  2939,  2940,  2941,  2942,  2943,  2944,  2945,  2946,  2947,  2948,  2949,  2950,  2951,  2952,  2953,  2954
  2955,  2956,  2957,  2958,  2959,  2960,  2961,  2962,  2963,  2964,  2965,  2966,  2967,  2968,  2969,  2970
  2971,  2972,  2973,  2974,  2975,  2976,  2977,  2978,  2979,  2980,  2981,  2982,  2983,  2984,  2985,  2986
  2987,  2988,  2989,  2990,  2991,  2992,  2993,  2994,  2995,  2996,  2997,  2998,  2999,  3000,  3001,  3002
  3003,  3004,  3005,  3006,  3007,  3008,  3009,  3010,  3011,  3012,  3013,  3014,  3015,  3016,  3017,  3018
  3019,  3020,  3021,  3022,  3023,  3024,  3025,  3026,  3027,  3028,  3029,  3030,  3031,  3032,  3033,  3034
  3035,  3036,  3037,  3038,  3039,  3040,  3041,  3042,  3043,  3044,  3045,  3046,  3047,  3048,  3049,  3050
  3051,  3052,  3053,  3054,  3055,  3056,  3057,  3058,  3059,  3060,  3061,  3062,  3063,  3064,  3065,  3066
  3067,  3068,  3069,  3070,  3071,  3072,  3073,  3074,  3075,  3076,  3077,  3078,  3079,  3080,  3081,  3082
  3083,  3084,  3085,  3086,  3087,  3088,  3089,  3090,  3091,  3092,  3093,  3094,  3095,  3096,  3097,  3098
  3099,  3100,  3101,  3102,  3103,  3104,  3105,  3106,  3107,  3108,  3109,  3110,  3111,  3112,  3113,  3114
  3115,  3116,  3117,  3118,  3119,  3120,  3121,  3122,  3123,  3124,  3125,  3126,  3127,  3128,  3129,  3130
  3131,  3132,  3133,  3134,  3135,  3136,  3137,  3138,  3139,  3140,  3141,  3142,  3143,  3144,  3145,  3146
  3147,  3148,  3149,  3150,  3151,  3152,  3153,  3154,  3155,  3156,  3157,  3158,  3159,  3160,  3161,  3162
  3163,  3164,  3165,  3166,  3167,  3168,  3169,  3170,  3171,  3172,  3173,  3174,  3175,  3176,  3177,  3221
  3222,  3223,  3224,  3225,  3226,  3227,  3228,  3229,  3230,  3231,  3232,  3233,  3234,  3235,  3236,  3237
  3238,  3239,  3240,  3241,  3242,  3243,  3271,  3272,  3273,  3274,  3275,  3276,  3277,  3278,  3279,  3280
  3281,  3282,  3283,  3284,  3285,  3286,  3287,  3288,  3289,  3290,  3291,  3292,  3293,  3360,  3377,  3379
  3396,  3437,  3438,  3439,  3440,  3441,  3442,  3443,  3444,  3445,  3446,  3447,  3448,  3449,  3450,  3451
  3452,  3453,  3454,  3455,  3456,  3457,  3458,  3459,  3460,  3461,  3462,  3463,  3464,  3465,  3466,  3467
  3468,  3469,  3470,  3471,  3472,  3473,  3474,  3475,  3476,  3477,  3478,  3479,  3480,  3481,  3482,  3483
  3484,  3485,  3486,  3487,  3488,  3489,  3490,  3491,  3492,  3493,  3494,  3495,  3496,  3497,  3498,  3499
  3500,  3501,  3502,  3503,  3504,  3505,  3506,  3507,  3508,  3509,  3510,  3511,  3512,  3513,  3514,  3515
  3516,  3517,  3518,  3519,  3520,  3521,  3522,  3523,  3524,  3525,  3526,  3527,  3528,  3529,  3530,  3531
  3532,  3533,  3534,  3535,  3536,  3537,  3538,  3539,  3540,  3541,  3542,  3543,  3544,  3545,  3546,  3547
  3548,  3549,  3550,  3551,  3552,  3553,  3554,  3555,  3556,  3557,  3558,  3559,  3560,  3561,  3562,  3563
  3564,  3565,  3566,  3567,  3568,  3569,  3570,  3571,  3572,  3573,  3574,  3575,  3576,  3577,  3578,  3579
  3580,  3581,  3582,  3583,  3584,  3585,  3586,  3587,  3588,  3589,  3590,  3591,  3592,  3593,  3594,  3595
  3596,  3597,  3598,  3599,  3600,  3601,  3602,  3603,  3604,  3605,  3606,  3607,  3608,  3609,  3610,  3611
  4161,  4165,  4168,  4172,  4178,  4179,  4180,  4181,  4182,  4183,  4184,  4185,  4186,  4187,  4188,  4189
  4190,  4191,  4192,  4193,  4194,  4195,  4196,  4197,  4198,  4199,  4200,  4201,  4202,  4203,  4204,  4205
  4206,  4207,  4208,  4209,  4210,  4211,  4212,  4213,  4214,  4215,  4216,  4217,  4218,  4219,  4220,  4221
  4222,  4223,  4224,  4225,  4226,  4227,  4228,  4229,  4230,  4231,  4232,  4233,  4234,  4235,  4236,  4237
  4238,  4239,  4240,  4241,  4242,  4243,  4244,  4245,  4246,  4247,  4248,  4249,  4250,  4251,  4252,  4253
  4254,  4255,  4256,  4257,  4258,  4259,  4260,  4261,  4262,  4263,  4264,  4265,  4266,  4267,  4268,  4269
  4270,  4271,  4272,  4273,  4274,  4275,  4276,  4277,  4278,  4279,  4280,  4281,  4282,  4283,  4284,  4285
  4286,  4287,  4288,  4289,  4290,  4291,  4292,  4293,  4294,  4295,  4296,  4297,  4298,  4299,  4300,  4301
  4302,  4303,  4304,  4305,  4306,  4307,  4308,  4309,  4310,  4311,  4312,  4313,  4314,  4315,  4316,  4317
  4318,  4319,  4320,  4321,  4322,  4323,  4324,  4325,  4326,  4327,  4328,  4329,  4330,  4331,  4332,  4333
  4334,  4335,  4336,  4337,  4338,  4339,  4340,  4341,  4342,  4343,  4344,  4345,  4346,  4347,  4348,  4349
  4350,  4351,  4352,  4353,  4354,  4355,  4356,  4357,  4358,  4359,  4360,  4361,  4362,  4363,  4364,  4365
  4366,  4367,  4368,  4369,  4370,  4371,  4372,  4373,  4374,  4375,  4376,  4377,  4378,  4379,  4380,  4381
  4382,  4383,  4384,  4385,  4386,  4387,  4388,  4389,  4390,  4391,  4392,  4393,  4394,  4395,  4396,  4397
  4398,  4399,  4400,  4401,  4402,  4403,  4404,  4405,  4406,  4407,  4408,  4409,  4410,  4411,  4412,  4413
  4414,  4415,  4416,  4417,  4418,  4419,  4420,  4421,  4422,  4423,  4424,  4425,  4426,  4427,  4428,  4429
  4430,  4431,  4432,  4433,  4434,  4435,  4436,  4437,  4438,  4439,  4440,  4441,  4442,  4443,  4444,  4445
  4446,  4447,  4448,  4449,  4450,  4451,  4452,  4453,  4454,  4455,  4456,  4457,  4458,  4459,  4460,  4461
  4462,  4463,  4464,  4465,  4466,  4467,  4468,  4469,  4471,  4473,  4475,  4477,  4478,  4479,  4481,  4482
  4484,  4486,  4487,  4488,  4490,  4491,  4493,  4495,  4496,  4497,  4499,  4500,  4502,  4504,  4505,  4506
  4507,  4509,  4511,  4513,  4514,  4515,  4516,  4518,  4520,  4521,  4522,  4524,  4525,  4527,  4528,  4534
  4537,  4538,  4540,  4542,  4544,  4548,  4549,  4550,  4551,  4552,  4553,  4554,  4555,  4556,  4557,  4558
  4559,  4560,  4561,  4562,  4563,  4564,  4565,  4566,  4567,  4568,  4569,  4570,  4571,  4572,  4573,  4574
  4575,  4576,  4577,  4578,  4579,  4580,  4581,  4582,  4583,  4584,  4585,  4586,  4587,  4588,  4589,  4590
  4591,  4592,  4593,  4594,  4595,  4596,  4597,  4598,  4599,  4600,  4601,  4602,  4603,  4604,  4605,  4606
  4607,  4608,  4609,  4610,  4611,  4612,  4613,  4614,  4615,  4616,  4617,  4618,  4619,  4620,  4621,  4622
  4623,  4624,  4625,  4626,  4627,  4628,  4629,  4630,  4631,  4632,  4633,  4634,  4635,  4636,  4637,  4638
  4639,  4640,  4641,  4642,  4643,  4644,  4645,  4646,  4647,  4648,  4649,  4650,  4651,  4652,  4653,  4654
  4655,  4656,  4657,  4658,  4659,  4660,  4661,  4662,  4663,  4664,  4665,  4666,  4667,  4668,  4669,  4670
  4671,  4672,  4673,  4674,  4675,  4676,  4677,  4678,  4679,  4680,  4681,  4682,  4683,  4684,  4685,  4686
  4687,  4688,  4689,  4690,  4691,  4692,  4693,  4694,  4695,  4696,  4697,  4698,  4699,  4700,  4701,  4702
  4703,  4704,  4705,  4706,  4707,  4708,  4709,  4710,  4711,  4712,  4713,  4714,  4715,  4716,  4717,  4718
  4719,  4720,  4721,  4722,  4723,  4724,  4725,  4726,  4727,  4728,  4729,  4730,  4731,  4732,  4733,  4734
  4735,  4736,  4737,  4738,  4739,  4740,  4741,  4742,  4743,  4744,  4745,  4746,  4747,  4748,  4749,  4750
  4751,  4752,  4753,  4754,  4755,  4756,  4757,  4758,  4759,  4760,  4761,  4762,  4763,  4764,  4765,  4766
  4767,  4768,  4769,  4770,  4771,  4772,  4773,  4774,  4775,  4776,  4777,  4778,  4779,  4780,  4781,  4782
  4783,  4784,  4785,  4786,  4787,  4788,  4789,  4790,  4791,  4792,  4793,  4794,  4795,  4796,  4797,  4798
  4799,  4800,  4801,  4802,  4803,  4804,  4805,  4806,  4807,  4808,  4809,  4810,  4811,  4812,  4813,  4814
  4815,  4816,  4817,  4818,  4819,  4820,  4821,  4822,  4823,  4824,  4825,  4826,  4827,  4828,  4829,  4830
  4831,  4832,  4833,  4834,  4835,  4836,  4837,  4838,  4839,  4840,  4841,  4842,  4843,  4844,  4845,  4846
  4847,  4848,  4849,  4850,  4851,  4852,  4853,  4854,  4855,  4856,  4857,  4858,  4859,  4860,  4861,  4862
  4863,  4864,  4865,  4866,  4867,  4868,  4869,  4870,  4871,  4872,  4873,  4874,  4875,  4876,  4877,  4878
  4879,  4880,  4881,  4882,  4883,  4884,  4885,  4886,  4887,  4888,  4889,  4890,  4891,  4892,  4893,  4894
  4895,  4896,  4897,  4898,  4899,  4900,  4901,  4902,  4903,  4904,  4905,  4906,  4907,  4908,  4909,  4910
  4911,  4912,  4913,  4914,  4915,  4916,  4917,  4918,  4919,  4920,  4921,  4922,  4923,  4924,  4925,  4926
  4927,  4928,  4929,  4930,  4931,  4932,  4933,  4934,  4935,  4936,  4937,  4938,  4939,  4940,  4941,  4942
  4943,  4944,  4945,  4946,  4947,  4948,  4949,  4950,  4951,  4952,  4953,  4954,  4955,  4956,  4957,  4958
  4959,  4960,  4961,  4962,  4963,  4964,  4965,  4966,  4967,  4968,  4969,  4970,  4971,  4972,  4973,  4974
  4975,  4976,  4977,  4978,  4979,  4980,  4981,  4982,  4983,  4984,  4985,  4986,  4987,  4988,  4989,  4990
  4991,  4992,  4993,  4994,  4995,  4996,  4997,  4998,  4999,  5000,  5001,  5002,  5003,  5004,  5005,  5006
  5007,  5008,  5009,  5010,  5011,  5012,  5013,  5014,  5015,  5016,  5017,  5018,  5019,  5020,  5021,  5022
  5023,  5024,  5025,  5026,  5027,  5028,  5029,  5030,  5031,  5032,  5033,  5034,  5035,  5036,  5037,  5038
  5039,  5040,  5041,  5042,  5043,  5044,  5045,  5046,  5047,  5048,  5049,  5050,  5051,  5052,  5053,  5054
  5055,  5056,  5057,  5058,  5059,  5060,  5061,  5062,  5063,  5064,  5065,  5066,  5067,  5068,  5069,  5070
  5071,  5072,  5073,  5074,  5075,  5076,  5077,  5078,  5079,  5080,  5081,  5082,  5083,  5084,  5085,  5086
  5087,  5088,  5089,  5090,  5091,  5092,  5093,  5094,  5095,  5096,  5097,  5098,  5099,  5100,  5101,  5102
  5103,  5104,  5105,  5106,  5107,  5108,  5109,  5110,  5111,  5112,  5113,  5114,  5115,  5116,  5117,  5118
  5119,  5120,  5121,  5122,  5123,  5124,  5125,  5126,  5127,  5128,  5129,  5130,  5131,  5132,  5133,  5134
  5135,  5136,  5137,  5138,  5139,  5140,  5141,  5142,  5143,  5144,  5145,  5146,  5147,  5148,  5149,  5150
  5151,  5152,  5153,  5154,  5155,  5156,  5157,  5158,  5159,  5160,  5161,  5162,  5163,  5164,  5165,  5166
  5167,  5168,  5169,  5170,  5171,  5172,  5173,  5174,  5175,  5176,  5177,  5178,  5179,  5180,  5181,  5182
  5183,  5184,  5185,  5186,  5187,  5188,  5189,  5190,  5191,  5192,  5193,  5194,  5195,  5196,  5197,  5198
  5199,  5200,  5201,  5202,  5203,  5204,  5205,  5206,  5207,  5208,  5209,  5210,  5211,  5212,  5213,  5214
  5215,  5216,  5217,  5218,  5219,  5220,  5221,  5222,  5223,  5224,  5225,  5226,  5227,  5228,  5229,  5230
  5231,  5232,  5233,  5234,  5235,  5236,  5237,  5238,  5239,  5240,  5241,  5242,  5243,  5244,  5245,  5246
  5247,  5248,  5249,  5250,  5251,  5252,  5253,  5254,  5255,  5256,  5257,  5258,  5259,  5260,  5261,  5262
  5263,  5264,  5265,  5266,  5267,  5268,  5269,  5270,  5271,  5272,  5273,  5274,  5275,  5276,  5277,  5278
  5279,  5280,  5281,  5282,  5283,  5284,  5285,  5286,  5287,  5288,  5289,  5290,  5291,  5292,  5293,  5294
  5295,  5296,  5297,  5298,  5299,  5300,  5301,  5302,  5303,  5304,  5305,  5306,  5307,  5308,  5309,  5310
  5311,  5312,  5313,  5314,  5315,  5316,  5317,  5318,  5319,  5320,  5321,  5322,  5323,  5324,  5325,  5326
  5327,  5328,  5329,  5330,  5331,  5332,  5333,  5334,  5335,  5336,  5337,  5338,  5339,  5340,  5341,  5342
  5343,  5344,  5345,  5346,  5347,  5348,  5349,  5350,  5351,  5352,  5353,  5354,  5355,  5356,  5357,  5358
  5359,  5360,  5361,  5362,  5363,  5364,  5365,  5366,  5367,  5368,  5369,  5370,  5371,  5372,  5373,  5374
  5375,  5376,  5377,  5378,  5379,  5380,  5381,  5382,  5383,  5384,  5385,  5386,  5387,  5388,  5389,  5390
  5391,  5392,  5393,  5394,  5395,  5396,  5397,  5398,  5399,  5400,  5401,  5402,  5403,  5404,  5405,  5406
  5407,  5408,  5409,  5410,  5411,  5412,  5413,  5414,  5415,  5416,  5417,  5418,  5419,  5420,  5421,  5422
  5423,  5424,  5425,  5426,  5427,  5428,  5429,  5430,  5431,  5432,  5433,  5434,  5435,  5436,  5437,  5438
  5439,  5440,  5441,  5442,  5443,  5444,  5445,  5446,  5447,  5448,  5449,  5450,  5451,  5452,  5453,  5454
  5455,  5456,  5457,  5458,  5459,  5460,  5461,  5462,  5463,  5464,  5465,  5466,  5467,  5468,  5469,  5470
  5471,  5472,  5473,  5474,  5475,  5476,  5477,  5478,  5479,  5480,  5481,  5482,  5483,  5484,  5485,  5486
  5487,  5488,  5489,  5490,  5491,  5492,  5493,  5494,  5495,  5496,  5497,  5498,  5499,  5500,  5501,  5502
  5503,  5504,  5505,  5506,  5507,  5508,  5509,  5510,  5511,  5512,  5513,  5514,  5515,  5516,  5517,  5518
  5519,  5520,  5521,  5522,  5523,  5524,  5525,  5526,  5527,  5528,  5529,  5530,  5531,  5532,  5533,  5534
  5535,  5536,  5537,  5538,  5539,  5540,  5541,  5542,  5543,  5544,  5545,  5546,  5547,  5548,  5549,  5550
  5551,  5552,  5553,  5554,  5555,  5556,  5557,  5558,  5559,  5560,  5561,  5562,  5563,  5564,  5565,  5566
  5567,  5568,  5569,  5570,  5571,  5572,  5573,  5574,  5575,  5576,  5577,  5578,  5579,  5580,  5581,  5582
  5583,  5584,  5585,  5586,  5587,  5588,  5589,  5590,  5591,  5592,  5593,  5594,  5595,  5596,  5597,  5598
  5599,  5600,  5601,  5602,  5603,  5604,  5605,  5606,  5607,  5608,  5609,  5610,  5611,  5612,  5613,  5614
  5615,  5616,  5617,  5618,  5619,  5620,  5621,  5622,  5623,  5624,  5625,  5626,  5627,  5628,  5629,  5630
  5631,  5632,  5633,  5634,  5635,  5636,  5637,  5638,  5639,  5640,  5641,  5642,  5643,  5644,  5645,  5646
  5647,  5648,  5649,  5650,  5651,  5652,  5653,  5654,  5655,  5656,  5657,  5658,  5659,  5660,  5661,  5662
  5663,  5664,  5665,  5666,  5667,  5668,  5669,  5670,  5671,  5672,  5673,  5674,  5675,  5676,  5677,  5678
  5679,  5680,  5681,  5682,  5683,  5684,  5685,  5686,  5687,  5688,  5689,  5690,  5691,  5692,  5693,  5694
  5695,  5696,  5697,  5698,  5699,  5700,  5701,  5702,  5703,  5704,  5705,  5706,  5707,  5708,  5709,  5710
  5711,  5712,  5713,  5714,  5715,  5716,  5717,  5718,  5719,  5720,  5721,  5722,  5723,  5724,  5725,  5726
  5727,  5728,  5729,  5730,  5731,  5732,  5733,  5734,  5735,  5736,  5737,  5738,  5739,  5740,  5741,  5742
  5743,  5744,  5745,  5746,  5747,  5748,  5749,  5750,  5751,  5752,  5753,  5754,  5755,  5756,  5757,  5758
  5759,  5760,  5761,  5762,  5763,  5764,  5765,  5766,  5767,  5768,  5769,  5770,  5771,  5772,  5773,  5774
  5775,  5776,  5777,  5778,  5779,  5780,  5781,  5782,  5783,  5784,  5785,  5786,  5787,  5788,  5789,  5790
  5791,  5792,  5793,  5794,  5795,  5796,  5797,  5798,  5799,  5800,  5801,  5802,  5803,  5804,  5805,  5806
  5807,  5808,  5809,  5810,  5811,  5812,  5813,  5814,  5815,  5816,  5817,  5818,  5819,  5820,  5821,  5822
  5823,  5824,  5825,  5826,  5827,  5828,  5829,  5830,  5831,  5832,  5833,  5834,  5835,  5836,  5837,  5838
  5839,  5840,  5841,  5842,  5843,  5844,  5845,  5846,  5847,  5848,  5849,  5850,  5851,  5852,  5853,  5854
  5855,  5856,  5857,  5858,  5859,  5860,  5861,  5862,  5863,  5864,  5865,  5866,  5867,  5868,  5869,  5870
  5871,  5872,  5873,  5874,  5875,  5876,  5877,  5878,  5879,  5880,  5881,  5882,  5883,  5884,  5885,  5886
  5887,  5888,  5889,  5890,  5891,  5892,  5893,  5894,  5895,  5896,  5897,  5898,  5899,  5900,  5901,  5902
  5903,  5904,  5905,  5906,  5907,  5908,  5909,  5910,  5911,  5912,  5913,  5914,  5915,  5916,  5917,  5918
  5919,  5920,  5921,  5922,  5923,  5924,  5925,  5926,  5927,  5928,  5929,  5930,  5931,  5932,  5933,  5934
  5935,  5936,  5937,  5938,  5939,  5940,  5941,  5942,  5943,  5944,  5945,  5946,  5947,  5948,  5949,  5950
  5951,  5952,  5953,  5954,  5955,  5956,  5957,  5958,  5959,  5960,  5961,  5962,  5963,  5964,  5965,  5966
  5967,  5968,  5969,  5970,  5971,  5972,  5973,  5974,  5975,  5976,  5977,  5978,  5979,  5980,  5981,  5982
  5983,  5984,  5985,  5986,  5987,  5988,  5989,  5990,  5991,  5992,  5993,  5994,  5995,  5996,  5997,  5998
  5999,  6000,  6003,  6005,  6007,  6009,  6011,  6013,  6016,  6017,  6019,  6021,  6022,  6023,  6024,  6025
  6026,  6027,  6028,  6029,  6030,  6031,  6032,  6033,  6034,  6035,  6036,  6037,  6038,  6039,  6040,  6041
  6042,  6043,  6044,  6045,  6046,  6047,  6048,  6049,  6050,  6051,  6052,  6053,  6054,  6055,  6056,  6057
  6058,  6059,  6060,  6061,  6062,  6063,  6064,  6065,  6066,  6067,  6068,  6069,  6070,  6071,  6072,  6073
  6074,  6075,  6076,  6077,  6078,  6079,  6080,  6081,  6082,  6083,  6084,  6085,  6086,  6087,  6088,  6089
  6090,  6091,  6092,  6093,  6094,  6095,  6096,  6097,  6098,  6099,  6100,  6101,  6102,  6103,  6104,  6105
  6106,  6107,  6108,  6109,  6110,  6111,  6112,  6113,  6114,  6115,  6116,  6117,  6118,  6119,  6120,  6121
  6122,  6123,  6124,  6125,  6126,  6127,  6128,  6129,  6130,  6131,  6132,  6133,  6134,  6135,  6136,  6137
  6138,  6139,  6140,  6141,  6142,  6143,  6144,  6145,  6146,  6147,  6148,  6149,  6150,  6151,  6152,  6153
  6154,  6155,  6156,  6157,  6158,  6159,  6160,  6161,  6162,  6163,  6164,  6165,  6166,  6167,  6168,  6169
  6170,  6171,  6172,  6173,  6174,  6175,  6176,  6177,  6178,  6179,  6180,  6181,  6182,  6183,  6184,  6185
  6186,  6187,  6188,  6189,  6190,  6191,  6192,  6193,  6194,  6195,  6196,  6197,  6198,  6199,  6200,  6201
  6202,  6203,  6204,  6205,  6206,  6207,  6208,  6209,  6210,  6211,  6212,  6213,  6214,  6215,  6216,  6217
  6218,  6219,  6220,  6221,  6222,  6223,  6224,  6225,  6226,  6227,  6228,  6229,  6230,  6231,  6232,  6233
  6234,  6235,  6236,  6237,  6238,  6239,  6240,  6241,  6242,  6243,  6244,  6245,  6246,  6247,  6248,  6249
  6250,  6251,  6252,  6253,  6254,  6255,  6256,  6257,  6258,  6259,  6260,  6261,  6262,  6263,  6264,  6265
  6266,  6267,  6268,  6269,  6270,  6271,  6272,  6273,  6274,  6275,  6276,  6277,  6278,  6279,  6280,  6281
  6282,  6283,  6284,  6285,  6286,  6287,  6288,  6289,  6290,  6291,  6292,  6293,  6294,  6295,  6296,  6297
  6298,  6299,  6300,  6301,  6302,  6303,  6304,  6305,  6306,  6307,  6308,  6309,  6310,  6311,  6312,  6313
  6314,  6315,  6316,  6317,  6318,  6319,  6320,  6321,  6322,  6323,  6324,  6325,  6326,  6327,  6328,  6329
  6330,  6331,  6332,  6333,  6334,  6335,  6336,  6337,  6338,  6339,  6340,  6341,  6342,  6343,  6344,  6345
  6346,  6347,  6348,  6349,  6350,  6351,  6352,  6353,  6354,  6355,  6356,  6357,  6358,  6359,  6360,  6361
  6362,  6363,  6364,  6365,  6366,  6367,  6368,  6369,  6370,  6371,  6372,  6373,  6374,  6375,  6376,  6377
  6378,  6379,  6380,  6381,  6382,  6383,  6384,  6385,  6386,  6387,  6388,  6389,  6390,  6391,  6392,  6393
  6394,  6395,  6396,  6397,  6398,  6399,  6400,  6401,  6402,  6403,  6404,  6405,  6406,  6407,  6408,  6409
  6410,  6411,  6412,  6413,  6414,  6415,  6416,  6417,  6418,  6419,  6420,  6421,  6422,  6423,  6424,  6425
  6426,  6427,  6428,  6429,  6430,  6431,  6432,  6433,  6434,  6435,  6436,  6437,  6438,  6439,  6440,  6441
  6442,  6443,  6444,  6445,  6446,  6447,  6448,  6449,  6450,  6451,  6452,  6453,  6454,  6455,  6456,  6457
  6458,  6459,  6460,  6461,  6462,  6463,  6464,  6465,  6466,  6467,  6468,  6469,  6470,  6471,  6472,  6473
  6474,  6475,  6476,  6477,  6478,  6479,  6480,  6481,  6482,  6483,  6484,  6485,  6486,  6487,  6488,  6489
  6490,  6491,  6492,  6493,  6494,  6495,  6496,  6497,  6498,  6499,  6500,  6501,  6502,  6503,  6504,  6505
  6506,  6507,  6508,  6509,  6510,  6511,  6512,  6513,  6514,  6515,  6516,  6517,  6518,  6519,  6520,  6521
  6522,  6523,  6524,  6525,  6526,  6527,  6528,  6529,  6530,  6531,  6532,  6533,  6534,  6535,  6536,  6537
  6538,  6539,  6540,  6541,  6542,  6543,  6544,  6545,  6546,  6547,  6548,  6549,  6550,  6551,  6552,  6553
  6554,  6555,  6556,  6557,  6558,  6559,  6560,  6561,  6562,  6563,  6564,  6565,  6566,  6567,  6568,  6569
  6570,  6571,  6572,  6573,  6574,  6575,  6576,  6577,  6578,  6579,  6580,  6581,  6582,  6583,  6584,  6585
  6586,  6587,  6588,  6589,  6590,  6591,  6592,  6593,  6594,  6595,  6596,  6597,  6598,  6599,  6600,  6601
  6602,  6603,  6604,  6605,  6606,  6607,  6608,  6609,  6610,  6611,  6612,  6613,  6614,  6615,  6616,  6617
  6618,  6619,  6620,  6621,  6622,  6623,  6624,  6625,  6626,  6627,  6628,  6629,  6630,  6631,  6632,  6633
  6634,  6635,  6636,  6637,  6638,  6639,  6640,  6641,  6642,  6643,  6644,  6645,  6646,  6647,  6648,  6649
  6650,  6651,  6652,  6653,  6654,  6655,  6656,  6657,  6658,  6659,  6660,  6661,  6662,  6663,  6664,  6665
  6666,  6667,  6668,  6669,  6670,  6671,  6672,  6673,  6674,  6675,  6676,  6677,  6678,  6679,  6680,  6681
  6682,  6683,  6684,  6685,  6686,  6687,  6688,  6689,  6690,  6691,  6692,  6693,  6694,  6695,  6696,  6697
  6698,  6699,  6700,  6701,  6702,  6703,  6704,  6705,  6706,  6707,  6708,  6709,  6710,  6711,  6712,  6713
  6714,  6715,  6716,  6717,  6718,  6719,  6720,  6721,  6722,  6723,  6724,  6725,  6726,  6727,  6728,  6729
  6730,  6731,  6732,  6733,  6734,  6735,  6736,  6737,  6738,  6739,  6740,  6741,  6742,  6743,  6744,  6745
  6746,  6747,  6748,  6749,  6750,  6751,  6752,  6753,  6754,  6755,  6756,  6757,  6758,  6759,  6760,  6761
  6762,  6763,  6764,  6765,  6766,  6767,  6768,  6769,  6770,  6771,  6772,  6773,  6774,  6775,  6776,  6777
  6778,  6779,  6780,  6781,  6782,  6783,  6784,  6785,  6786,  6787,  6788,  6789,  6790,  6791,  6792,  6793
  6794,  6795,  6796,  6797,  6798,  6799,  6800,  6801,  6802,  6803,  6804,  6805,  6806,  6807,  6808,  6809
  6810,  6811,  6812,  6813,  6814,  6815,  6816,  6817,  6818,  6819,  6820,  6821,  6822,  6823,  6824,  6825
  6826,  6827,  6828,  6829,  6830,  6831,  6832,  6833,  6834,  6835,  6836,  6837,  6838,  6839,  6840,  6841
  6842,  6843,  6844,  6845,  6846,  6847,  6848,  6849,  6850,  6851,  6852,  6853,  6854,  6855,  6856,  6857
  6858,  6859,  6860,  6861,  6862,  6863,  6864,  6865,  6866,  6867,  6868,  6869,  6870,  6871,  6872,  6873
  6874,  6875,  6876,  6877,  6878,  6879,  6880,  6881,  6882,  6883,  6884,  6885,  6886,  6887,  6888,  6889
  6890,  6891,  6892,  6893,  6894,  6895,  6896,  6897,  6898,  6899,  6900,  6901,  6902,  6903,  6904,  6905
  6906,  6907,  6908,  6909,  6910,  6911,  6912,  6913,  6914,  6915,  6916,  6917,  6918,  6919,  6920,  6921
  6922,  6923,  6924,  6925,  6926,  6927,  6928,  6929,  6930,  6931,  6932,  6933,  6934,  6935,  6936,  6937
  6938,  6939,  6940,  6941,  6942,  6943,  6944,  6945,  6946,  6947,  6948,  6949,  6950,  6951,  6952,  6953
  6954,  6955,  6956,  6957,  6958,  6959,  6960,  6961,  6962,  6963,  6964,  6965,  6966,  6967,  6968,  6969
  6970,  6971,  6972,  6973,  6974,  6975,  6976,  6977,  6978,  6979,  6980,  6981,  6982,  6983,  6984,  6985
  6986,  6987,  6988,  6989,  6990,  6991,  6992,  6993,  6994,  6995,  6996,  6997,  6998,  6999,  7000,  7001
  7002,  7003,  7004,  7005,  7006,  7007,  7008,  7009,  7010,  7011,  7012,  7013,  7014,  7015,  7016,  7017
  7018,  7019,  7020,  7021,  7022,  7023,  7024,  7025,  7026,  7027,  7028,  7029,  7030,  7031,  7032,  7033
  7034,  7035,  7036,  7037,  7038,  7039,  7040,  7041,  7042,  7043,  7044,  7045,  7046,  7047,  7048,  7049
  7050,  7051,  7052,  7053,  7054,  7055,  7056,  7057,  7058,  7059,  7060,  7061,  7062,  7063,  7064,  7065
  7066,  7067,  7068,  7069,  7070,  7071,  7072,  7073,  7074,  7075,  7076,  7077,  7078,  7079,  7080,  7081
  7082,  7083,  7084,  7085,  7086,  7087,  7088,  7089,  7090,  7091,  7092,  7093,  7094,  7095,  7096,  7097
  7098,  7099,  7100,  7101,  7102,  7103,  7104,  7105,  7106,  7107,  7108,  7109,  7110,  7111,  7112,  7113
  7114,  7115,  7116,  7117,  7118,  7119,  7120,  7121,  7122,  7123,  7124,  7125,  7126,  7127,  7128,  7129
  7130,  7131,  7132,  7133,  7134,  7135,  7136,  7137,  7138,  7139,  7140,  7141,  7142,  7143,  7144,  7145
  7146,  7147,  7148,  7149,  7150,  7151,  7152,  7153,  7154,  7155,  7156,  7157,  7158,  7159,  7160,  7161
  7162,  7163,  7164,  7165,  7166,  7167,  7168,  7169,  7170,  7171,  7172,  7173,  7174,  7175,  7176,  7177
  7178,  7179,  7180,  7181,  7182,  7183,  7184,  7185,  7186,  7187,  7188,  7189,  7190,  7191,  7192,  7193
  7194,  7195,  7196,  7197,  7198,  7199,  7200,  7201,  7202,  7203,  7204,  7205,  7206,  7207,  7208,  7209
  7210,  7211,  7212,  7213,  7214,  7215,  7216,  7217,  7218,  7219,  7220,  7221,  7222,  7223,  7224,  7225
  7226,  7227,  7228,  7229,  7230,  7231,  7232,  7233,  7234,  7235,  7236,  7237,  7238,  7239,  7240,  7241
  7242,  7243,  7244,  7245,  7246,  7247,  7248,  7249,  7250,  7251,  7252,  7253,  7254,  7255,  7256,  7257
  7258,  7259,  7260,  7261,  7262,  7263,  7264,  7265,  7266,  7267,  7268,  7269,  7270,  7271,  7272,  7273
  7274,  7275,  7276,  7277,  7278,  7279,  7280,  7281,  7282,  7283,  7284,  7285,  7286,  7287,  7288,  7289
  7290,  7291,  7292,  7293,  7294,  7295,  7296,  7297,  7298,  7299,  7300,  7301,  7302,  7303,  7304,  7305
  7306,  7307,  7308,  7309,  7310,  7311,  7312,  7313,  7314,  7315,  7316,  7317,  7318,  7319,  7320,  7321
  7322,  7323,  7324,  7325,  7326,  7327,  7328,  7329,  7330,  7331,  7332,  7333,  7334,  7335,  7336,  7337
  7338,  7339,  7340,  7341,  7342,  7343,  7344,  7345,  7346,  7347,  7348,  7349,  7350,  7351,  7352,  7353
  7354,  7355,  7356,  7357,  7358,  7359,  7360,  7361,  7362,  7363,  7364,  7365,  7366,  7367,  7368,  7369
  7370,  7371,  7372,  7373,  7374,  7375,  7376,  7377,  7378,  7379,  7380,  7381,  7382,  7383,  7384,  7385
  7386,  7387,  7388,  7389,  7390,  7391,  7392,  7393,  7394,  7395,  7396,  7397,  7398,  7399,  7400,  7401
  7402,  7403,  7404,  7405,  7406,  7407,  7408,  7409,  7410,  7411,  7412,  7413,  7414,  7415,  7416,  7417
  7418,  7419,  7420,  7421,  7422,  7423,  7424,  7425,  7426,  7427,  7428,  7429,  7430,  7431,  7432,  7433
  7434,  7435,  7436,  7437,  7438,  7439,  7440,  7441,  7442,  7443,  7444,  7445,  7446,  7447,  7448,  7449
  7450,  7451,  7452,  7453,  7454,  7455,  7456,  7457,  7458,  7459,  7460,  7461,  7462,  7463,  7464,  7465
  7466,  7467,  7468,  7469,  7470,  7471,  7472,  7473,  7474,  7475,  7476,  7477,  7478,  7479,  7480,  7481
  7482,  7483,  7484,  7485,  7486,  7487,  7488,  7489,  7490,  7491,  7492,  7493,  7494,  7495,  7496,  7497
  7498,  7499,  7500,  7501,  7502,  7503,  7504,  7505,  7506,  7507,  7508,  7509,  7510,  7511,  7512,  7513
  7514,  7515,  7516,  7517,  7518,  7519,  7520,  7521,  7522,  7523,  7524,  7525,  7526,  7527,  7528,  7529
  7530,  7531,  7532,  7533,  7534,  7535,  7536,  7537,  7538,  7539,  7540,  7541,  7542,  7543,  7544,  7545
  7546,  7547,  7548,  7549,  7550,  7551,  7552,  7553,  7554,  7555,  7556,  7557,  7558,  7559,  7560,  7561
  7562,  7563,  7564,  7565,  7566,  7567,  7568,  7569,  7570,  7571,  7572,  7573,  7574,  7575,  7576,  7577
  7578,  7579,  7580,  7581,  7582,  7583,  7584,  7585,  7586,  7587,  7588,  7589,  7590,  7591,  7592,  7593
  7594,  7595,  7596,  7597,  7598,  7599,  7600,  7601,  7602,  7603,  7604,  7605,  7606,  7607,  7608,  7609
  7610,  7611,  7612,  7613,  7614,  7615,  7616,  7617,  7618,  7619,  7620,  7621,  7622,  7623,  7624,  7625
  7626,  7627,  7628,  7629,  7630,  7631,  7632,  7633,  7634,  7635,  7636,  7637,  7638,  7639,  7640,  7641
  7642,  7643,  7644,  7645,  7646,  7647,  7648,  7649,  7650,  7651,  7652,  7653,  7654,  7655,  7656,  7657
  7658,  7660,  7661,  7663,  7666,  7672,  7676,  7681,  7684,  7688,  7693,  7696,  7700,  7704,  7708,  7712
  7716,  7720,  7724,  7728,  7732,  7736,  7740,  7750,  7780,  7784,  7788,  7792,  7795,  7798,  7804,  7807
  7811,  7814,  7818,  7822,  7828,  7831,  7834,  7838,  7842,  7847,  7852,  7856,  7860,  7864,  7868,  7872
  7876,  7880,  7884,  7887,  7891,  7896,  7899,  7903,  7907,  7911,  7914,  7918,  7923,  7926,  7937,  7940
  7944,  7948,  7953,  7956,  7960,  7966,  7969,  7973,  7976,  7979,  7982,  7985,  7987,  7991,  7994,  7995
  7997,  8009,  8013,  8017,  8021,  8025,  8029,  8033,  8037,  8041,  8045,  8049,  8053,  8057,  8061,  8065
  8068,  8071,  8075,  8079,  8083,  8087,  8091,  8095,  8099,  8103,  8107,  8111,  8115,  8119,  8123,  8127
  8131,  8135,  8139,  8143,  8147,  8151,  8155,  8159,  8163,  8167,  8171,  8175,  8179,  8183,  8187,  8191
  8203,  8206,  8210,  8214,  8218,  8221,  8237,  8241,  8245,  8249,  8253,  8257,  8262,  8265,  8269,  8273
  8277,  8281,  8285,  8289,  8325,  8329,  8340,  8346,  8358,  8361,  8368,  8373,  8377,  8381,  8385,  8389
  8393,  8397,  8401,  8405,  8409,  8413,  8417,  8421,  8425,  8429,  8433,  8437,  8441,  8445,  8449,  8453
  8456,  8462,  8466,  8470,  8474,  8478,  8482,  8486,  8490,  8494,  8498,  8502,  8506,  8510,  8514,  8518
  8522,  8526,  8530,  8534,  8538,  8542,  8546,  8550,  8554,  8562,  8566,  8583,  8587,  8591,  8595,  8599
  8612,  8622,  8626,  8630,  8634,  8638,  8642,  8646,  8650,  8654,  8658,  8662,  8666,  8670,  8674,  8678
  8682,  8711,  8715,  8724,  8727,  8730,  8731,  8744,  8751,  8755,  8759,  8772,  8776,  8790,  8793,  8796
  8799,  8802,  8805,  8808,  8811,  8814,  8817,  8826,  8866,  8893,  8895,  8896,  8905,  8915,  8919,  8936
  8940,  8962,  8971,  8975,  8987,  8991,  8995,  8999,  9003,  9007,  9011,  9015,  9019,  9023,  9027,  9031
  9035,  9039,  9043,  9047,  9051,  9055,  9059,  9062,  9077,  9081,  9085,  9089,  9093,  9097,  9104,  9108
  9118,  9122,  9130,  9145,  9164,  9171,  9187,  9199,  9202,  9211,  9218,  9219,  9236,  9240,  9251,  9254
  9263,  9270,  9287,  9291,  9312,  9320,  9336,  9340,  9349,  9353,  9363,  9372,  9376,  9380,  9384,  9388
  9392,  9396,  9400,  9404,  9408,  9412,  9416,  9420,  9424,  9428,  9432,  9436,  9440,  9444,  9447,  9474
  9484,  9485,  9488,  9491,  9499,  9503,  9517,  9522,  9526,  9543,  9546,  9549,  9552,  9555,  9559,  9582
  9586,  9594,  9597,  9600,  9603,  9606,  9611,  9615,  9710,  9714,  9728,  9730,  9733,  9734,  9736,  9739
  9744,  9746,  9749,  9750,  9833,  9837,  9841,  9845,  9849,  9853,  9857,  9861,  9865,  9869,  9873,  9877
  9881,  9885,  9889,  9893,  9897,  9901,  9905,  9909,  9913,  9917,  9921,  9925,  9937,  9940,  9944,  9947
  9948,  9951,  9956,  9958,  9961,  9962,  9970,  9972,  9978,  9982, 10055, 10058, 10066, 10067, 10068, 10069
 10070, 10071, 10072, 10073, 10074, 10075, 10076, 10077, 10078, 10079, 10080, 10081, 10082, 10083, 10084, 10085
 10086, 10087, 10088, 10089, 10090, 10091, 10092, 10093, 10094, 10095, 10096, 10097, 10098, 10099, 10100, 10101
 10102, 10103, 10104, 10105, 10106, 10107, 10108, 10109, 10110, 10111, 10112, 10113, 10114, 10115, 10116, 10117
 10118, 10119, 10120, 10121, 10122, 10123, 10124, 10125, 10126, 10127, 10128, 10129, 10130, 10131, 10132, 10133
 10134, 10135, 10136, 10137, 10138, 10139, 10140, 10141, 10142, 10143, 10144, 10145, 10146, 10147, 10148, 10149
 10150, 10151, 10152, 10153, 10154, 10155, 10156, 10157, 10158, 10159, 10160, 10161, 10162, 10163, 10164, 10165
 10166, 10167, 10168, 10169, 10170, 10171, 10172, 10173, 10174, 10175, 10176, 10177, 10178, 10179, 10180, 10181
 10182, 10183, 10184, 10185, 10186, 10187, 10188, 10189, 10190, 10191, 10192, 10193, 10194, 10195, 10196, 10197
 10198, 10199, 10200, 10201, 10202, 10203, 10204, 10205, 10206, 10207, 10208, 10209, 10210, 10211, 10212, 10213
 10214, 10215, 10216, 10217, 10218, 10219, 10220, 10221, 10222, 10223, 10224, 10225, 10226, 10227, 10228, 10229
 10230, 10231, 10232, 10233, 10234, 10235, 10236, 10237, 10238, 10239, 10240, 10241, 10242, 10243, 10244, 10245
 10246, 10247, 10248, 10249, 10250, 10251, 10252, 10253, 10254, 10255, 10256, 10257, 10258, 10259, 10260, 10261
 10262, 10263, 10264, 10265, 10266, 10267, 10268, 10269, 10270, 10271, 10272, 10273, 10274, 10275, 10276, 10277
 10278, 10279, 10280, 10281, 10282, 10283, 10284, 10285, 10286, 10287, 10288, 10289, 10290, 10291, 10292, 10293
 10294, 10295, 10296, 10297, 10298, 10299, 10300, 10301, 10302, 10303, 10304, 10305, 10306, 10307, 10308, 10309
 10310, 10311, 10312, 10313, 10314, 10315, 10316, 10317, 10318, 10319, 10320, 10321, 10322, 10323, 10324, 10325
 10326, 10327, 10328, 10329, 10330, 10331, 10332, 10333, 10334, 10335, 10336, 10337, 10338, 10339, 10340, 10341
 10342, 10343, 10344, 10345, 10346, 10347, 10348, 10349, 10350, 10351, 10352, 10353, 10354, 10355, 10356, 10357
 10358, 10359, 10360, 10361, 10362, 10363, 10364, 10365, 10366, 10367, 10368, 10369, 10370, 10371, 10372, 10373
 10374, 10375, 10376, 10377, 10378, 10379, 10380, 10381, 10382, 10383, 10384, 10385, 10386, 10387, 10388, 10389
 10390, 10391, 10392, 10393, 10394, 10395, 10396, 10397, 10398, 10399, 10400, 10401, 10402, 10403, 10404, 10405
 10406, 10407, 10408, 10409, 10410, 10411, 10412, 10413, 10414, 10415, 10416, 10417, 10418, 10419, 10420, 10421
 10422, 10423, 10424, 10425, 10426, 10427, 10428, 10429, 10430, 10431, 10432, 10433, 10434, 10435, 10436, 10437
 10438, 10439, 10440, 10441, 10442, 10443, 10444, 10445, 10446, 10447, 10448, 10449, 10450, 10451, 10452, 10453
 10454, 10455, 10456, 10457, 10458, 10459, 10460, 10461, 10462, 10463, 10464, 10465, 10466, 10467, 10468, 10469
 10470, 10471, 10472, 10473, 10474, 10475, 10476, 10477, 10478, 10479, 10480, 10481, 10482, 10483, 10484, 10485
 10486, 10487, 10488, 10489, 10490, 10491, 10492, 10493, 10494, 10495, 10496, 10497, 10498, 10499, 10500, 10501
 10502, 10503, 10504, 10505, 10506, 10507, 10508, 10509, 10510, 10511, 10512, 10513, 10514, 10515, 10516, 10517
 10518, 10519, 10520, 10521, 10522, 10523, 10524, 10525, 10526, 10527, 10528, 10529, 10530, 10531, 10532, 10533
 10534, 10535, 10536, 10537, 10538, 10539, 10540, 10541, 10542, 10543, 10544, 10545, 10546, 10547, 10548, 10549
 10550, 10551, 10552, 10553, 10554, 10555, 10556, 10557, 10558, 10559, 10560, 10561, 10562, 10563, 10564, 10565
 10566, 10567, 10568, 10569, 10570, 10571, 10572, 10573, 10574, 10575, 10576, 10577, 10578, 10579, 10580, 10581
 10582, 10583, 10584, 10585, 10586, 10587, 10588, 10589, 10590, 10591, 10592, 10593, 10594, 10595, 10596, 10597
 10598, 10599, 10600, 10601, 10602, 10603, 10604, 10605, 10606, 10607, 10608, 10609, 10610, 10611, 10612, 10613
 10614, 10615, 10616, 10617, 10618, 10619, 10620, 10621, 10622, 10623, 10624, 10625, 10626, 10627, 10628, 10629
 10630, 10631, 10632, 10633, 10634, 10635, 10636, 10637, 10638, 10639, 10640, 10641, 10642, 10643, 10644, 10645
 10646, 10647, 10648, 10649, 10650, 10651, 10652, 10653, 10654, 10655, 10656, 10657, 10658, 10659, 10660, 10661
 10662, 10663, 10664, 10665, 10666, 10667, 10668, 10669, 10670, 10671, 10672, 10673, 10674, 10675, 10676, 10677
 10678, 10679, 10680, 10681, 10682, 10683, 10684, 10685, 10686, 10687, 10688, 10689, 10690, 10691, 10692, 10693
 10694, 10695, 10696, 10697, 10698, 10699, 10700, 10701, 10702, 10703, 10704, 10705, 10706, 10707, 10708, 10709
 10710, 10711, 10712, 10713, 10714, 10715, 10716, 10717, 10718, 10719, 10720, 10721, 10722, 10723, 10724, 10725
 10726, 10727, 10728, 10729, 10730, 10731, 10732, 10733, 10734, 10735, 10736, 10737, 10738, 10739, 10740, 10741
 10742, 10743, 10744, 10745, 10746, 10747, 10748, 10749, 10750, 10751, 10752, 10753, 10754, 10755, 10756, 10757
 10758, 10759, 10760, 10761, 10762, 10763, 10764, 10765, 10766, 10767, 10768, 10769, 10770, 10771, 10772, 10773
 10774, 10775, 10776, 10777, 10778, 10779, 10780, 10781, 10782, 10783, 10784, 10785, 10786, 10787, 10788, 10789
 10790, 10791, 10792, 10793, 10794, 10795, 10796, 10797, 10798, 10799, 10800, 10801, 10802, 10803, 10804, 10805
 10806, 10807, 10808, 10809, 10810, 10811, 10812, 10813, 10814, 10815, 10816, 10817, 10818, 10819, 10820, 10821
 10822, 10823, 10824, 10825, 10826, 10827, 10828, 10829, 10830, 10866, 10872, 11002, 11005, 11007, 11009, 11011
 11013, 11015, 11017, 11019, 11021, 11023, 11025, 11027, 11029, 11031, 11033, 11035, 11037, 11039, 11041, 11043
 11045, 11047, 11049, 11059, 11066, 11069, 11072, 11075, 11078, 11081, 11084, 11087, 11090, 11093, 11096, 11099
 11102, 11105, 11108, 11111, 11114, 11117, 11120, 11123, 11126, 11129, 11132, 11135, 11385, 11526, 11640, 11644
 11783, 11784, 11788, 11789, 11923, 11927, 12192, 12193, 12198, 12199, 12200, 12201, 12202, 12204, 12207, 12209
 12211, 12213, 12214, 12215, 12216, 12217, 12218, 12219, 12220, 12221, 12222, 12223, 12224, 12225, 12226, 12227
 12228, 12229, 12230, 12231, 12232, 12233, 12234, 12235, 12236, 12237, 12238, 12239, 12240, 12241, 12242, 12243
 12244, 12245, 12246, 12247
*Elset, elset=Set-2
    7,    8,    9,   10,   11,   12,   13,   14,   15,   16,   17,   18,   19,   20,   21,   22
   23,   24,   25,   26,   27,   28,   29,   30,   31,   32,   33,   34,   35,   36,   37,   38
   39,   40,   41,   42,   43,   44,   45,   46,   47,   48,   49,   50,   51,   52,   53,   54
   55,   56,   57,   58,   59,   60,   61,   62,   63,   64,   65,   66,   67,   68,   69,   70
   71,   72,   73,   74,   75,   76,   77,   78,   79,   80,   81,   82,   83,   84,   85,   86
   87,   88,   89,   90,   91,   92,   93,   94,   95,   96,   97,   98,   99,  100,  101,  102
  130,  131,  132,  133,  134,  135,  136,  137,  138,  139,  140,  141,  142,  143,  144,  145
  146,  147,  148,  149,  150,  151,  152,  153,  154,  155,  156,  157,  158,  159,  160,  161
  162,  163,  164,  165,  166,  167,  168,  169,  170,  171,  172,  173,  174,  175,  176,  177
  178,  179,  180,  181,  182,  183,  184,  185,  186,  187,  188,  189,  190,  191,  192,  193
  194,  195,  196,  197,  198,  199,  200,  201,  202,  203,  204,  205,  206,  207,  208,  209
  210,  211,  212,  213,  214,  215,  216,  217,  218,  219,  220,  221,  222,  223,  224,  225
  226,  227,  228,  229,  230,  231,  232,  233,  234,  235,  236,  237,  238,  239,  240,  241
  242,  243,  244,  245,  246,  247,  248,  249,  250,  251,  252,  253,  254,  255,  256,  257
  258,  259,  260,  261,  262,  263,  264,  265,  266,  267,  268,  269,  270,  271,  272,  273
  274,  275,  276,  277,  278,  279,  280,  281,  282,  283,  284,  285,  286,  287,  288,  289
  290,  291,  292,  293,  294,  295,  296,  297,  298,  299,  300,  301,  302,  303,  304,  305
  306,  307,  308,  309,  310,  311,  312,  313,  314,  315,  316,  317,  318,  319,  320,  321
  322,  323,  324,  325,  326,  327,  328,  329,  330,  331,  332,  333,  334,  335,  336,  337
  338,  339,  340,  341,  342,  343,  344,  345,  346,  347,  348,  349,  350,  351,  352,  353
  354,  355,  356,  357,  358,  359,  360,  361,  362,  363,  364,  365,  366,  367,  368,  369
  370,  371,  372,  373,  374,  375,  376,  377,  378,  379,  380,  381,  382,  383,  384,  385
  386,  387,  388,  389,  390,  391,  392,  393,  394,  395,  396,  397,  398,  399,  400,  401
  402,  403,  404,  405,  406,  407,  408,  409,  410,  411,  412,  413,  414,  415,  416,  417
  418,  419,  420,  421,  422,  423,  424,  425,  426,  427,  428,  429,  430,  431,  432,  433
  434,  435,  436,  437,  438,  439,  440,  441,  442,  443,  444,  445,  446,  447,  448,  449
  450,  451,  452,  453,  454,  455,  456,  457,  458,  459,  460,  461,  462,  463,  464,  465
  466,  467,  468,  469,  470,  471,  472,  473,  474,  475,  476,  477,  478,  479,  480,  481
  482,  483,  484,  485,  486,  487,  488,  489,  490,  491,  492,  493,  494,  495,  496,  497
  498,  499,  500,  501,  502,  503,  504,  505,  506,  507,  508,  509,  510,  511,  512,  513
  514,  515,  516,  517,  518,  519,  520,  521,  522,  523,  524,  525,  526,  527,  528,  529
  530,  531,  532,  533,  534,  535,  536,  537,  538,  539,  540,  541,  542,  543,  544,  545
  546,  547,  548,  549,  550,  551,  552,  553,  554,  555,  556,  557,  558,  559,  560,  561
  562,  563,  564,  565,  566,  567,  568,  569,  570,  571,  572,  573,  574,  575,  576,  577
  578,  579,  580,  581,  582,  583,  584,  585,  586,  587,  588,  589,  590,  591,  592,  593
  594,  595,  596,  597,  598,  599,  600,  601,  602,  603,  604,  605,  606,  607,  608,  609
  610,  611,  612,  613,  614,  615,  616,  617,  618,  619,  620,  621,  622,  623,  624,  625
  626,  627,  628,  629,  630,  631,  632,  633,  634,  635,  636,  637,  638,  639,  640,  641
  642,  643,  644,  645,  646,  647,  648,  649,  650,  651,  652,  653,  654,  655,  656,  657
  658,  659,  660,  661,  662,  663,  664,  665,  666,  667,  668,  669,  670,  671,  672,  673
  674,  675,  676,  677,  678,  679,  680,  681,  682,  683,  684,  685,  686,  687,  688,  689
  690,  691,  692,  693,  694,  695,  696,  697,  698,  699,  700,  701,  702,  703,  704,  705
  706,  707,  708,  709,  710,  711,  712,  713,  714,  715,  716,  717,  718,  719,  720,  721
  722,  723,  724,  725,  726,  737,  738,  739,  740,  741,  742,  743,  744,  745,  746,  747
  748,  749,  750,  751,  752,  753,  754,  755,  756,  757,  758,  759,  760,  761,  762,  763
  764,  765,  766,  767,  768,  769,  770,  771,  772,  773,  774,  775,  776,  777,  778,  779
  780,  781,  782,  783,  784,  785,  786,  787,  788,  789,  790,  791,  792,  793,  794,  795
  796,  797,  798,  799,  800,  801,  802,  803,  804,  805,  806,  807,  808,  809,  810,  811
  812,  813,  814,  815,  816,  817,  818,  819,  820,  821,  822,  823,  824,  825,  826,  827
  828,  829,  830,  831,  832,  833,  834,  835,  836,  837,  838,  839,  840,  841,  842,  843
  844,  845,  846,  847,  848,  849,  850,  851,  852,  853,  854,  855,  856,  857,  858,  859
  860,  861,  862,  863,  864,  865,  866,  867,  868,  869,  870,  871,  872,  873,  874,  875
  876,  877,  878,  879,  880,  881,  882,  883,  884,  885,  886,  887,  888,  889,  890,  891
  892,  893,  894,  895,  896,  897,  898,  899,  900,  901,  902,  903,  904,  905,  906,  907
  908,  909,  910,  911,  912,  913,  914,  915,  916,  917,  918,  919,  920,  921,  922,  923
  924,  925,  926,  927,  928,  929,  930,  931,  932,  933,  934,  935,  936,  937,  938,  939
  940,  941,  942,  943,  944,  945,  946,  947,  948,  949,  950,  951,  952,  953,  954,  955
  956,  957,  958,  959,  960,  961,  962,  963,  964,  965,  966,  967,  968,  969,  970,  971
  972,  973,  974,  975,  976,  977,  978,  979,  980,  981,  982,  983,  984,  985,  986,  987
  988,  989,  990,  991,  992,  993,  994,  995,  996,  997,  998,  999, 1000, 1001, 1002, 1003
 1004, 1005, 1006, 1007, 1008, 1009, 1010, 1011, 1012, 1013, 1014, 1015, 1016, 1017, 1018, 1019
 1020, 1021, 1022, 1023, 1024, 1025, 1026, 1027, 1028, 1029, 1030, 1031, 1032, 1033, 1034, 1035
 1036, 1037, 1038, 1039, 1040, 1041, 1042, 1043, 1044, 1045, 1046, 1047, 1048, 1049, 1050, 1051
 1052, 1053, 1054, 1055, 1056, 1057, 1058, 1059, 1060, 1061, 1062, 1063, 1064, 1065, 1066, 1067
 1068, 1069, 1070, 1071, 1072, 1073, 1074, 1075, 1076, 1077, 1078, 1079, 1080, 1081, 1082, 1083
 1084, 1085, 1086, 1087, 1088, 1089, 1090, 1091, 1092, 1093, 1094, 1095, 1096, 1097, 1098, 1099
 1100, 1101, 1102, 1103, 1104, 1105, 1106, 1107, 1108, 1109, 1110, 1111, 1112, 1113, 1114, 1115
 1116, 1117, 1118, 1119, 1120, 1121, 1122, 1123, 1124, 1125, 1126, 1127, 1128, 1129, 1130, 1131
 1132, 1133, 1134, 1135, 1136, 1137, 1138, 1139, 1140, 1141, 1142, 1143, 1144, 1145, 1146, 1147
 1148, 1149, 1150, 1151, 1152, 1153, 1154, 1155, 1156, 1157, 1158, 1159, 1160, 1161, 1162, 1163
 1164, 1165, 1166, 1167, 1168, 1169, 1170, 1171, 1172, 1173, 1174, 1175, 1176, 1177, 1178, 1179
 1180, 1181, 1182, 1183, 1184, 1185, 1186, 1187, 1188, 1189, 1190, 1191, 1192, 1193, 1194, 1195
 1196, 1197, 1198, 1199, 1200, 1201, 1202, 1203, 1204, 1205, 1206, 1207, 1208, 1209, 1210, 1211
 1212, 1213, 1214, 1215, 1216, 1217, 1218, 1219, 1220, 1221, 1222, 1223, 1224, 1225, 1226, 1227
 1228, 1229, 1230, 1231, 1232, 1233, 1234, 1235, 1236, 1237, 1238, 1239, 1240, 1241, 1242, 1243
 1244, 1245, 1246, 1247, 1248, 1249, 1250, 1251, 1252, 1253, 1254, 1255, 1256, 1257, 1258, 1259
 1260, 1261, 1262, 1263, 1264, 1265, 1266, 1267, 1268, 1269, 1270, 1271, 1272, 1273, 1274, 1275
 1276, 1277, 1278, 1279, 1280, 1281, 1282, 1283, 1284, 1285, 1286, 1287, 1288, 1289, 1290, 1291
 2606, 2607, 2608, 2609, 2610, 2611, 2612, 2613, 2614, 2615, 2616, 2617, 2618, 2619, 2620, 2621
 2622, 2623, 2624, 2625, 2626, 2627, 2628, 2629, 2630, 2631, 2632, 2633, 2634, 2635, 2636, 2637
 2638, 2639, 2640, 2641, 2642, 2643, 2644, 2645, 2646, 2647, 2648, 2649, 2650, 2651, 2652, 2653
 2654, 2655, 2656, 2657, 2658, 2659, 2660, 2661, 2662, 2663, 2664, 2665, 2666, 2667, 2668, 2669
 2670, 2671, 2672, 2673, 2674, 2675, 2676, 2677, 2678, 2679, 2680, 2681, 2682, 2683, 2684, 2685
 2686, 2687, 2688, 2689, 2690, 2691, 2692, 2693, 2694, 2695, 2696, 2697, 2698, 2699, 2700, 2701
 2702, 2703, 2704, 2705, 2706, 2707, 2708, 2709, 2710, 2711, 2712, 2713, 2714, 2715, 2716, 2717
 2718, 2719, 2720, 2721, 2722, 2723, 2724, 2725, 2726, 2727, 2728, 2729, 2730, 2731, 2732, 2733
 2734, 2735, 2736, 2737, 2738, 2739, 2740, 2741, 2742, 2743, 2744, 2745, 2746, 2747, 2748, 2749
 2750, 2751, 2752, 2753, 2754, 2755, 2756, 2757, 2758, 2759, 2760, 2761, 2762, 2763, 2764, 2765
 2766, 2767, 2768, 2769, 2770, 2771, 2772, 2773, 2774, 2775, 2776, 2777, 2778, 2779, 2780, 2781
 2782, 2783, 2784, 2785, 2786, 2787, 2788, 2789, 2790, 2791, 2792, 2793, 2794, 2795, 2796, 2797
 2798, 2799, 2800, 2801, 2802, 2803, 2804, 2805, 2806, 2807, 2808, 2809, 2810, 2811, 2812, 2813
 2814, 2815, 2816, 2817, 2818, 2819, 2820, 2821, 2822, 2823, 2824, 2825, 2826, 2827, 2828, 2829
 2830, 2831, 2832, 2833, 2834, 2835, 2836, 2837, 2838, 2839, 2840, 2841, 2842, 2843, 2844, 2845
 2846, 2847, 2848, 2849, 2850, 2851, 2852, 2853, 2854, 2855, 2856, 2857, 2858, 2859, 2860, 2861
 2862, 2863, 2864, 2865, 2866, 2867, 2868, 2869, 2870, 2871, 2872, 2873, 2874, 2875, 2876, 2877
 2878, 2879, 2880, 2881, 2882, 2883, 2884, 2885, 2886, 2887, 2888, 2889, 2890, 2891, 2892, 2893
 2894, 2895, 2896, 2897, 2898, 2899, 2900, 2901, 2902, 2903, 2904, 2905, 2906, 2907, 2908, 2909
 2910, 2911, 2912, 2913, 2914, 2915, 2916, 2917, 2918, 2919, 2920, 2921, 2922, 2923, 2924, 2925
 2926, 2927, 2928, 2929, 2930, 2931, 2932, 2933, 2934, 2935, 2936, 2937, 2938, 2939, 2940, 2941
 2942, 2943, 2944, 2945, 2946, 2947, 2948, 2949, 2950, 2951, 2952, 2953, 2954, 2955, 2956, 2957
 2958, 2959, 2960, 2961, 2962, 2963, 2964, 2965, 2966, 2967, 2968, 2969, 2970, 2971, 2972, 2973
 2974, 2975, 2976, 2977, 2978, 2979, 2980, 2981, 2982, 2983, 2984, 2985, 2986, 2987, 2988, 2989
 2990, 2991, 2992, 2993, 2994, 2995, 2996, 2997, 2998, 2999, 3000, 3001, 3002, 3872, 3873, 3874
 3881, 3882, 3883, 3884, 3885, 3886, 3887, 3888, 3889, 3890, 3891, 3892, 3895, 3903, 3904, 3905
 3906, 3907, 3908, 3909, 3910, 3911, 3912, 3913, 3914, 3915, 3916, 3917, 3918, 3919, 3920, 3921
 3922, 3923, 3924, 3925, 3926, 3927, 3928, 3929, 3930, 3931
*Nset, nset=solid
     3,     4,     7,     8,    11,    12,    13,    14,    15,    16,    17,    18,    19,    20,    21,    22
    23,    24,    25,    26,    27,    28,    29,    30,    31,    32,    33,    34,    35,    36,    37,    38
    39,    40,    41,    42,    43,    44,    45,    46,    47,    48,    49,    50,    51,    52,    53,    54
    55,    56,    57,    58,    59,    60,    61,    62,    63,    64,    65,    66,    67,    68,    69,    70
    71,    72,    73,    74,    75,    76,    77,    78,    79,    80,    81,    82,    83,    84,    85,    86
    87,    88,    89,    90,    91,    92,    93,    94,    95,    96,    97,    98,    99,   100,   101,   102
   103,   104,   105,   106,   107,   108,   109,   110,   111,   112,   113,   115,   117,   118,   120,   121
   123,   124,   125,   126,   127,   128,   129,   130,   131,   132,   133,   134,   135,   136,   137,   138
   139,   140,   141,   142,   143,   144,   145,   146,   147,   148,   149,   150,   151,   152,   153,   154
   155,   156,   157,   158,   159,   160,   161,   162,   163,   164,   165,   166,   167,   168,   169,   170
   171,   172,   173,   174,   175,   176,   177,   178,   179,   180,   181,   182,   183,   184,   185,   186
   187,   188,   189,   190,   191,   192,   193,   194,   195,   196,   197,   198,   199,   200,   201,   202
   203,   204,   205,   206,   207,   208,   209,   210,   211,   212,   213,   214,   215,   216,   217,   218
   219,   220,   221,   222,   223,   224,   225,   226,   227,   228,   229,   230,   231,   232,   233,   234
   235,   236,   237,   238,   239,   240,   241,   242,   243,   244,   245,   246,   247,   248,   249,   250
   251,   252,   253,   254,   255,   256,   257,   258,   259,   260,   261,   262,   263,   264,   265,   266
   267,   268,   269,   270,   271,   272,   273,   274,   275,   276,   277,   278,   279,   280,   281,   282
   283,   284,   285,   286,   287,   288,   289,   290,   291,   292,   293,   294,   295,   296,   297,   298
   299,   300,   301,   302,   303,   304,   305,   306,   307,   308,   309,   310,   311,   312,   313,   314
   315,   316,   317,   318,   319,   320,   321,   322,   323,   324,   325,   326,   327,   328,   329,   330
   331,   332,   333,   334,   335,   336,   337,   338,   339,   340,   341,   342,   343,   344,   345,   346
   347,   348,   349,   350,   351,   352,   353,   354,   355,   356,   357,   358,   359,   360,   361,   362
   363,   364,   365,   366,   367,   368,   369,   370,   371,   372,   373,   374,   375,   376,   377,   378
   379,   380,   381,   382,   383,   384,   385,   386,   387,   388,   389,   390,   391,   392,   393,   394
   395,   396,   397,   398,   399,   400,   401,   402,   403,   404,   405,   406,   407,   408,   409,   410
   411,   412,   413,   414,   415,   416,   417,   418,   419,   420,   421,   422,   423,   424,   425,   426
   427,   428,   429,   430,   431,   432,   433,   434,   435,   436,   437,   438,   439,   440,   441,   442
   443,   444,   445,   446,   447,   448,   449,   450,   451,   452,   453,   454,   455,   456,   457,   458
   459,   460,   461,   462,   463,   464,   465,   466,   467,   468,   469,   470,   471,   472,   473,   474
   475,   476,   477,   478,   479,   480,   481,   482,   483,   484,   485,   486,   487,   488,   489,   490
   491,   492,   493,   494,   495,   496,   497,   498,   499,   500,   501,   502,   503,   504,   505,   506
   507,   508,   509,   510,   511,   512,   513,   514,   515,   516,   517,   518,   519,   520,   521,   522
   523,   524,   525,   526,   527,   528,   529,   530,   531,   532,   533,   534,   535,   536,   537,   538
   539,   540,   541,   542,   543,   544,   545,   546,   547,   548,   549,   550,   551,   552,   553,   554
   555,   556,   557,   558,   559,   560,   561,   562,   563,   564,   565,   566,   567,   568,   569,   570
   571,   572,   573,   574,   575,   576,   577,   578,   579,   580,   581,   582,   583,   584,   585,   586
   587,   588,   589,   590,   591,   592,   593,   594,   595,   596,   597,   598,   599,   600,   601,   602
   603,   604,   605,   606,   607,   608,   609,   610,   611,   612,   613,   614,   615,   616,   617,   618
   619,   620,   621,   622,   623,   624,   625,   626,   627,   628,   629,   630,   631,   632,   633,   634
   635,   636,   637,   638,   639,   640,   641,   642,   643,   644,   645,   646,   647,   648,   649,   650
   651,   652,   653,   654,   655,   656,   657,   658,   659,   660,   661,   662,   663,   664,   665,   666
   667,   668,   669,   670,   671,   672,   673,   674,   675,   676,   677,   678,   679,   680,   681,   682
   683,   684,   685,   686,   687,   688,   689,   690,   691,   692,   693,   694,   695,   696,   697,   698
   699,   700,   701,   702,   703,   704,   705,   706,   707,   708,   709,   710,   711,   712,   713,   714
   715,   716,   717,   718,   719,   720,   721,   722,   723,   724,   725,   726,   727,   728,   729,   730
   731,   732,   733,   734,   735,   736,   737,   738,   739,   740,   741,   742,   743,   744,   745,   746
   747,   748,   749,   750,   751,   752,   753,   754,   755,   756,   757,   758,   759,   760,   761,   762
   763,   764,   765,   766,   767,   768,   769,   770,   771,   772,   773,   774,   775,   776,   777,   778
   779,   780,   781,   782,   783,   784,   785,   786,   787,   788,   789,   790,   791,   792,   793,   794
   795,   796,   797,   798,   799,   800,   801,   802,   803,   804,   805,   806,   807,   808,   809,   810
   811,   812,   813,   814,   815,   816,   817,   818,   819,   821,   822,   823,   824,   825,   826,   827
   828,   829,   830,   831,   832,   833,   834,   835,   836,   837,   838,   839,   840,   841,   842,   843
   844,   845,   846,   847,   848,   849,   850,   851,   852,   853,   854,   855,   856,   857,   858,   860
   861,   862,   863,   865,   866,   868,   869,   871,   872,   873,   874,   875,   876,   877,   878,   879
   880,   881,   882,   883,   884,   885,   886,   887,   888,   889,   890,   891,   892,   893,   894,   895
   896,   897,   898,   899,   900,   901,   902,   903,   905,   906,   907,   909,   910,   912,   913,   915
   916,   918,   919,   921,   922,   924,   925,   927,   929,   930,   931,   932,   934,   935,   937,   938
   939,   940,   941,   942,   943,   944,   945,   946,   947,   948,   949,   950,   951,   952,   953,   954
   955,   956,   957,   958,   959,   960,   961,   962,   963,   964,   965,   966,   967,   968,   969,   970
   971,   972,   973,   974,   975,   976,   977,   978,   979,   980,   981,   982,   983,   984,   985,   986
   987,   988,   989,   990,   991,   992,   993,   994,   995,   996,   997,   998,   999,  1000,  1001,  1002
  1003,  1004,  1005,  1006,  1007,  1008,  1009,  1010,  1011,  1012,  1013,  1014,  1015,  1016,  1017,  1018
  1019,  1020,  1021,  1022,  1023,  1024,  1025,  1026,  1027,  1028,  1029,  1030,  1031,  1032,  1033,  1034
  1035,  1036,  1037,  1038,  1039,  1040,  1041,  1042,  1043,  1044,  1045,  1046,  1047,  1048,  1049,  1050
  1051,  1052,  1053,  1054,  1055,  1056,  1057,  1069,  1070,  1071,  1074,  1114,  1116,  1118,  1119,  1120
  1121,  1122,  1123,  1124,  1125,  1126,  1127,  1128,  1129,  1130,  1131,  1132,  1133,  1134,  1135,  1136
  1137,  1138,  1139,  1140,  1141,  1142,  1143,  1144,  1145,  1146,  1147,  1148,  1149,  1150,  1151,  1152
  1153,  1154,  1155,  1156,  1157,  1158,  1159,  1160,  1161,  1162,  1163,  1164,  1165,  1166,  1167,  1168
  1169,  1170,  1171,  1172,  1173,  1174,  1175,  1176,  1177,  1178,  1179,  1180,  1181,  1182,  1183,  1184
  1185,  1186,  1187,  1188,  1189,  1190,  1191,  1192,  1193,  1194,  1195,  1196,  1197,  1198,  1199,  1200
  1201,  1202,  1203,  1204,  1205,  1206,  1207,  1208,  1209,  1210,  1211,  1212,  1213,  1214,  1215,  1216
  1217,  1218,  1219,  1220,  1221,  1222,  1223,  1224,  1225,  1226,  1227,  1228,  1229,  1230,  1231,  1232
  1233,  1234,  1235,  1236,  1237,  1238,  1239,  1240,  1241,  1242,  1243,  1244,  1245,  1246,  1247,  1248
  1249,  1250,  1251,  1252,  1253,  1254,  1255,  1256,  1257,  1258,  1259,  1260,  1261,  1262,  1263,  1264
  1265,  1266,  1267,  1268,  1269,  1270,  1271,  1272,  1273,  1274,  1275,  1276,  1277,  1278,  1279,  1280
  1281,  1282,  1283,  1284,  1285,  1286,  1287,  1288,  1289,  1290,  1291,  1292,  1293,  1294,  1295,  1296
  1297,  1298,  1299,  1300,  1301,  1302,  1303,  1304,  1305,  1306,  1307,  1308,  1309,  1310,  1311,  1312
  1313,  1314,  1315,  1316,  1317,  1318,  1319,  1320,  1321,  1322,  1323,  1324,  1325,  1326,  1327,  1328
  1329,  1330,  1331,  1332,  1333,  1334,  1335,  1336,  1337,  1338,  1339,  1340,  1341,  1342,  1343,  1344
  1345,  1346,  1347,  1348,  1349,  1350,  1351,  1352,  1353,  1354,  1355,  1356,  1357,  1358,  1359,  1360
  1361,  1362,  1363,  1364,  1365,  1366,  1367,  1368,  1369,  1370,  1371,  1372,  1373,  1374,  1375,  1376
  1377,  1378,  1379,  1380,  1381,  1382,  1383,  1384,  1385,  1386,  1387,  1388,  1389,  1390,  1391,  1392
  1393,  1394,  1395,  1396,  1397,  1398,  1399,  1400,  1401,  1402,  1403,  1404,  1405,  1406,  1407,  1408
  1409,  1410,  1411,  1412,  1413,  1414,  1415,  1416,  1417,  1418,  1419,  1420,  1421,  1422,  1423,  1424
  1425,  1426,  1427,  1428,  1429,  1430,  1431,  1432,  1433,  1434,  1435,  1436,  1437,  1438,  1439,  1440
  1441,  1442,  1443,  1444,  1445,  1446,  1447,  1448,  1449,  1450,  1451,  1452,  1453,  1454,  1455,  1456
  1457,  1458,  1459,  1460,  1461,  1462,  1463,  1464,  1465,  1466,  1467,  1468,  1469,  1470,  1471,  1472
  1473,  1474,  1475,  1476,  1477,  1478,  1479,  1480,  1481,  1482,  1483,  1484,  1485,  1486,  1487,  1488
  1489,  1490,  1491,  1492,  1493,  1494,  1495,  1496,  1497,  1498,  1499,  1500,  1501,  1502,  1503,  1504
  1505,  1506,  1507,  1508,  1509,  1510,  1511,  1512,  1513,  1514,  1515,  1516,  1517,  1518,  1519,  1520
  1521,  1522,  1523,  1524,  1525,  1526,  1527,  1528,  1529,  1530,  1531,  1532,  1533,  1534,  1535,  1536
  1537,  1538,  1539,  1540,  1541,  1542,  1543,  1544,  1545,  1546,  1547,  1548,  1549,  1550,  1551,  1552
  1553,  1554,  1555,  1556,  1557,  1558,  1559,  1560,  1561,  1562,  1563,  1564,  1565,  1566,  1567,  1568
  1569,  1570,  1571,  1572,  1573,  1574,  1575,  1576,  1577,  1578,  1579,  1580,  1581,  1582,  1583,  1584
  1585,  1586,  1587,  1588,  1589,  1590,  1591,  1592,  1593,  1594,  1595,  1596,  1597,  1598,  1599,  1600
  1601,  1602,  1603,  1604,  1605,  1606,  1607,  1608,  1609,  1610,  1611,  1612,  1613,  1614,  1615,  1616
  1617,  1618,  1619,  1620,  1621,  1622,  1623,  1624,  1625,  1626,  1627,  1628,  1629,  1630,  1631,  1632
  1633,  1634,  1635,  1636,  1637,  1638,  1639,  1640,  1641,  1642,  1643,  1644,  1645,  1646,  1647,  1648
  1649,  1650,  1651,  1652,  1653,  1654,  1655,  1656,  1657,  1658,  1659,  1660,  1661,  1662,  1663,  1664
  1665,  1666,  1667,  1668,  1669,  1670,  1671,  1672,  1673,  1674,  1675,  1676,  1677,  1678,  1679,  1680
  1681,  1682,  1683,  1684,  1685,  1686,  1687,  1688,  1689,  1690,  1691,  1692,  1693,  1694,  1695,  1696
  1697,  1698,  1699,  1700,  1701,  1702,  1703,  1704,  1705,  1706,  1707,  1708,  1709,  1710,  1711,  1712
  1713,  1714,  1715,  1716,  1717,  1718,  1719,  1720,  1721,  1722,  1723,  1724,  1725,  1726,  1727,  1728
  1729,  1730,  1731,  1732,  1733,  1734,  1735,  1736,  1737,  1738,  1739,  1740,  1741,  1742,  1743,  1744
  1745,  1746,  1747,  1748,  1749,  1750,  1751,  1752,  1753,  1754,  1755,  1756,  1757,  1758,  1759,  1760
  1761,  1762,  1763,  1764,  1765,  1766,  1767,  1768,  1769,  1770,  1771,  1772,  1773,  1774,  1775,  1776
  1777,  1778,  1779,  1780,  1781,  1782,  1783,  1784,  1785,  1786,  1787,  1788,  1789,  1790,  1791,  1792
  1793,  1794,  1795,  1796,  1797,  1798,  1799,  1800,  1801,  1802,  1803,  1804,  1805,  1806,  1807,  1808
  1809,  1810,  1811,  1812,  1813,  1814,  1815,  1816,  1817,  1818,  1819,  1820,  1821,  1822,  1823,  1824
  1825,  1826,  1827,  1828,  1829,  1830,  1831,  1832,  1833,  1834,  1835,  1836,  1837,  1838,  1839,  1840
  1841,  1842,  1843,  1844,  1845,  1846,  1847,  1848,  1849,  1850,  1851,  1852,  1853,  1854,  1855,  1856
  1857,  1858,  1859,  1860,  1861,  1862,  1863,  1864,  1865,  1866,  1867,  1868,  1869,  1870,  1871,  1872
  1873,  1874,  1875,  1876,  1877,  1878,  1879,  1880,  1881,  1882,  1883,  1884,  1885,  1886,  1887,  1888
  1889,  1890,  1891,  1892,  1893,  1894,  1895,  1896,  1897,  1898,  1899,  1900,  1901,  1902,  1903,  1904
  1905,  1906,  1907,  1908,  1909,  1910,  1911,  1912,  1913,  1914,  1915,  1916,  1917,  1918,  1919,  1920
  1921,  1922,  1923,  1924,  1925,  1926,  1927,  1928,  1929,  1930,  1931,  1932,  1933,  1934,  1935,  1936
  1937,  1938,  1939,  1940,  1941,  1942,  1943,  1944,  1945,  1946,  1947,  1948,  1949,  1950,  1951,  1952
  1953,  1954,  1955,  1956,  1957,  1958,  1959,  1960,  1961,  1962,  1963,  1964,  1965,  1966,  1967,  1968
  1969,  1970,  1971,  1972,  1973,  1974,  1975,  1976,  1977,  1978,  1979,  1980,  1981,  1982,  1983,  1984
  1985,  1986,  1987,  1988,  1989,  1990,  1991,  1992,  1993,  1994,  1995,  1996,  1997,  1998,  1999,  2000
  2001,  2002,  2003,  2004,  2005,  2006,  2007,  2008,  2009,  2010,  2011,  2012,  2013,  2014,  2015,  2016
  2017,  2018,  2019,  2020,  2021,  2022,  2023,  2024,  2025,  2026,  2027,  2028,  2029,  2030,  2031,  2032
  2033,  2034,  2035,  2036,  2037,  2038,  2039,  2040,  2041,  2042,  2043,  2044,  2045,  2046,  2047,  2048
  2049,  2050,  2051,  2052,  2053,  2054,  2055,  2056,  2057,  2058,  2059,  2060,  2061,  2062,  2063,  2064
  2065,  2066,  2067,  2068,  2069,  2070,  2071,  2072,  2073,  2074,  2075,  2076,  2077,  2078,  2079,  2080
  2081,  2082,  2083,  2084,  2085,  2086,  2087,  2088,  2089,  2090,  2091,  2092,  2093,  2094,  2095,  2096
  2097,  2098,  2099,  2100,  2101,  2102,  2103,  2104,  2105,  2106,  2107,  2108,  2109,  2110,  2111,  2112
  2113,  2114,  2115,  2116,  2117,  2118,  2119,  2120,  2121,  2122,  2123,  2124,  2125,  2126,  2127,  2128
  2129,  2130,  2131,  2132,  2133,  2134,  2135,  2136,  2137,  2138,  2139,  2140,  2141,  2142,  2143,  2144
  2145,  2146,  2147,  2148,  2149,  2150,  2151,  2152,  2153,  2154,  2155,  2156,  2157,  2158,  2159,  2160
  2161,  2162,  2163,  2164,  2165,  2166,  2167,  2168,  2169,  2170,  2171,  2172,  2173,  2174,  2175,  2176
  2177,  2178,  2179,  2180,  2181,  2182,  2183,  2184,  2185,  2186,  2187,  2188,  2189,  2190,  2191,  2192
  2193,  2194,  2195,  2196,  2197,  2198,  2199,  2200,  2201,  2202,  2203,  2204,  2205,  2206,  2207,  2208
  2209,  2210,  2211,  2212,  2213,  2214,  2215,  2216,  2217,  2218,  2219,  2220,  2221,  2222,  2223,  2224
  2225,  2226,  2227,  2228,  2229,  2230,  2231,  2232,  2233,  2234,  2235,  2236,  2237,  2238,  2239,  2240
  2241,  2242,  2243,  2244,  2245,  2246,  2247,  2248,  2249,  2250,  2251,  2252,  2253,  2254,  2255,  2256
  2257,  2258,  2259,  2260,  2261,  2262,  2263,  2264,  2265,  2266,  2267,  2268,  2269,  2270,  2271,  2272
  2273,  2274,  2275,  2276,  2277,  2278,  2279,  2280,  2281,  2282,  2283,  2284,  2285,  2286,  2287,  2288
  2289,  2290,  2291,  2292,  2293,  2294,  2295,  2296,  2297,  2298,  2299,  2300,  2301,  2302,  2303,  2304
  2305,  2306,  2307,  2308,  2309,  2310,  2311,  2312,  2313,  2314,  2315,  2316,  2317,  2318,  2319,  2320
  2321,  2322,  2323,  2324,  2325,  2326,  2327,  2328,  2329,  2330,  2331,  2332,  2333,  2334,  2335,  2336
  2337,  2338,  2339,  2340,  2341,  2342,  2343,  2344,  2345,  2346,  2347,  2348,  2349,  2350,  2351,  2352
  2353,  2354,  2355,  2356,  2357,  2358,  2359,  2360,  2361,  2362,  2363,  2364,  2365,  2366,  2367,  2368
  2369,  2370,  2371,  2372,  2373,  2374,  2375,  2376,  2377,  2378,  2379,  2380,  2381,  2382,  2383,  2384
  2385,  2386,  2387,  2388,  2389,  2390,  2391,  2392,  2398,  2401,  2404,  2407,  2410,  2418,  2419,  2420
  2421,  2424,  2427,  2430,  2433,  2436,  2437,  2438,  2439,  2440,  2441,  2442,  2443,  2444,  2447,  2464
  2470,  2471,  2472,  2473,  2474,  2477,  2479,  2480,  2481,  2482,  2483,  2484,  2485,  2486,  2487,  2488
  2489,  2490,  2491,  2492,  2493,  2496,  2497,  2498,  2499,  2502,  2503,  2504,  2505,  2506,  2507,  2508
  2509,  2510,  2511,  2512,  2513,  2514,  2515,  2516,  2517,  2518,  2519,  2520,  2521,  2522,  2523,  2524
  2527,  2529,  2552,  2560,  2563,  2564,  2565,  2566,  2567,  2568,  2569,  2570,  2571,  2572,  2573,  2574
  2575,  2576,  2577,  2578,  2579,  2580,  2581,  2582,  2583,  2584,  2587,  2588,  2589,  2590,  2591,  2592
  2593,  2594,  2595,  2596,  2597,  2598,  2599,  2600,  2601,  2602,  2603,  2604,  2605,  2606,  2607,  2608
  2609,  2612,  2617,  2618,  2619,  2620,  2627,  2628,  2629,  2630,  2631,  2632,  2633,  2634,  2635,  2636
  2637,  2638,  2639,  2640,  2641,  2645,  2648,  2655,  2659,  2672,  2673,  2674,  2675,  2676,  2677,  2678
  2679,  2680,  2693,  2699,  2703,  2708,  2712,  2713,  2714,  2715,  2716,  2717,  2718,  2719,  2720,  2721
  2722,  2723,  2724,  2725,  2726,  2727,  2728,  2729,  2730,  2733,  2734,  2735,  2736,  2737,  2741,  2744
  2763,  2772,  2775,  2784,  2795,  2798,  2804,  2805,  2806,  2807,  2808,  2809,  2810,  2811,  2812,  2813
  2814,  2815,  2816,  2817,  2818,  2819,  2820,  2821,  2822,  2831,  2834,  2839,  2844,  2845,  2846,  2847
  2856,  2858,  2859,  2860,  2861,  2867,  2877,  2878,  2879,  2882,  2883,  2887,  2888,  2889,  2890,  2891
  2892,  2893,  2894,  2895,  2896,  2897,  2898,  2899,  2900,  2901,  2902,  2903,  2904,  2905,  2906,  2907
  2908,  2913,  2916,  2919,  2920,  2922,  2926,  2930,  2931,  2932,  2933,  2934,  2935,  2936,  2937,  2938
  2939,  2940,  2941,  2942,  2943,  2944,  2945,  2946,  2947,  2948,  2949,  2950,  2951,  2952,  2953,  2954
  2955,  2956,  2957,  2958,  2959,  2960,  2961,  2962,  2963,  2964,  2965,  2966,  2967,  2968,  2969,  2970
  2971,  2972,  2973,  2974,  2975,  2976,  2977,  2978,  2979,  2980,  2981,  2982,  2983,  2984,  2985,  2986
  2987,  2988,  2989,  2990,  2991,  2992,  2993,  2994,  2995,  2996,  2997,  2998,  2999,  3000,  3001,  3002
  3003,  3004,  3005,  3006,  3007,  3008,  3009,  3010,  3011,  3012,  3013,  3014,  3015,  3016,  3017,  3018
  3019,  3020,  3021,  3022,  3023,  3024,  3025,  3026,  3027,  3028,  3029,  3030,  3031,  3032,  3033,  3034
  3035,  3036,  3037,  3038,  3039,  3040,  3041,  3042,  3043,  3044,  3045,  3046,  3047,  3048,  3049,  3050
  3051,  3052,  3053,  3054,  3055,  3056,  3057,  3058,  3059,  3060,  3061,  3062,  3063,  3064,  3065,  3066
  3067,  3068,  3069,  3070,  3071,  3072,  3073,  3074,  3075,  3076,  3077,  3078,  3079,  3080,  3081,  3082
  3083,  3084,  3085,  3086,  3087,  3088,  3089,  3090,  3091,  3092,  3093,  3094,  3095,  3096,  3097,  3098
  3099,  3100,  3101,  3102,  3103,  3104,  3105,  3106,  3107,  3108,  3109,  3110,  3111,  3112,  3113,  3114
  3115,  3116,  3117,  3118,  3119,  3120,  3121,  3122,  3123,  3124,  3125,  3126,  3127,  3128,  3129,  3130
  3131,  3132,  3133,  3134,  3135,  3136,  3137,  3138,  3139,  3140,  3141,  3142,  3143,  3144,  3145,  3146
  3147,  3148,  3149,  3150,  3151,  3152,  3153,  3154,  3155,  3156,  3157,  3158,  3159,  3160,  3161,  3162
  3163,  3164,  3165,  3166,  3167,  3168,  3169,  3170,  3171,  3172,  3173,  3174,  3175,  3176,  3177,  3221
  3222,  3223,  3224,  3225,  3226,  3227,  3228,  3229,  3230,  3231,  3232,  3233,  3234,  3235,  3236,  3237
  3238,  3239,  3240,  3241,  3242,  3243,  3271,  3272,  3273,  3274,  3275,  3276,  3277,  3278,  3279,  3280
  3281,  3282,  3283,  3284,  3285,  3286,  3287,  3288,  3289,  3290,  3291,  3292,  3293,  3360,  3377,  3379
  3396,  3437,  3438,  3439,  3440,  3441,  3442,  3443,  3444,  3445,  3446,  3447,  3448,  3449,  3450,  3451
  3452,  3453,  3454,  3455,  3456,  3457,  3458,  3459,  3460,  3461,  3462,  3463,  3464,  3465,  3466,  3467
  3468,  3469,  3470,  3471,  3472,  3473,  3474,  3475,  3476,  3477,  3478,  3479,  3480,  3481,  3482,  3483
  3484,  3485,  3486,  3487,  3488,  3489,  3490,  3491,  3492,  3493,  3494,  3495,  3496,  3497,  3498,  3499
  3500,  3501,  3502,  3503,  3504,  3505,  3506,  3507,  3508,  3509,  3510,  3511,  3512,  3513,  3514,  3515
  3516,  3517,  3518,  3519,  3520,  3521,  3522,  3523,  3524,  3525,  3526,  3527,  3528,  3529,  3530,  3531
  3532,  3533,  3534,  3535,  3536,  3537,  3538,  3539,  3540,  3541,  3542,  3543,  3544,  3545,  3546,  3547
  3548,  3549,  3550,  3551,  3552,  3553,  3554,  3555,  3556,  3557,  3558,  3559,  3560,  3561,  3562,  3563
  3564,  3565,  3566,  3567,  3568,  3569,  3570,  3571,  3572,  3573,  3574,  3575,  3576,  3577,  3578,  3579
  3580,  3581,  3582,  3583,  3584,  3585,  3586,  3587,  3588,  3589,  3590,  3591,  3592,  3593,  3594,  3595
  3596,  3597,  3598,  3599,  3600,  3601,  3602,  3603,  3604,  3605,  3606,  3607,  3608,  3609,  3610,  3611
  4161,  4165,  4168,  4172,  4178,  4179,  4180,  4181,  4182,  4183,  4184,  4185,  4186,  4187,  4188,  4189
  4190,  4191,  4192,  4193,  4194,  4195,  4196,  4197,  4198,  4199,  4200,  4201,  4202,  4203,  4204,  4205
  4206,  4207,  4208,  4209,  4210,  4211,  4212,  4213,  4214,  4215,  4216,  4217,  4218,  4219,  4220,  4221
  4222,  4223,  4224,  4225,  4226,  4227,  4228,  4229,  4230,  4231,  4232,  4233,  4234,  4235,  4236,  4237
  4238,  4239,  4240,  4241,  4242,  4243,  4244,  4245,  4246,  4247,  4248,  4249,  4250,  4251,  4252,  4253
  4254,  4255,  4256,  4257,  4258,  4259,  4260,  4261,  4262,  4263,  4264,  4265,  4266,  4267,  4268,  4269
  4270,  4271,  4272,  4273,  4274,  4275,  4276,  4277,  4278,  4279,  4280,  4281,  4282,  4283,  4284,  4285
  4286,  4287,  4288,  4289,  4290,  4291,  4292,  4293,  4294,  4295,  4296,  4297,  4298,  4299,  4300,  4301
  4302,  4303,  4304,  4305,  4306,  4307,  4308,  4309,  4310,  4311,  4312,  4313,  4314,  4315,  4316,  4317
  4318,  4319,  4320,  4321,  4322,  4323,  4324,  4325,  4326,  4327,  4328,  4329,  4330,  4331,  4332,  4333
  4334,  4335,  4336,  4337,  4338,  4339,  4340,  4341,  4342,  4343,  4344,  4345,  4346,  4347,  4348,  4349
  4350,  4351,  4352,  4353,  4354,  4355,  4356,  4357,  4358,  4359,  4360,  4361,  4362,  4363,  4364,  4365
  4366,  4367,  4368,  4369,  4370,  4371,  4372,  4373,  4374,  4375,  4376,  4377,  4378,  4379,  4380,  4381
  4382,  4383,  4384,  4385,  4386,  4387,  4388,  4389,  4390,  4391,  4392,  4393,  4394,  4395,  4396,  4397
  4398,  4399,  4400,  4401,  4402,  4403,  4404,  4405,  4406,  4407,  4408,  4409,  4410,  4411,  4412,  4413
  4414,  4415,  4416,  4417,  4418,  4419,  4420,  4421,  4422,  4423,  4424,  4425,  4426,  4427,  4428,  4429
  4430,  4431,  4432,  4433,  4434,  4435,  4436,  4437,  4438,  4439,  4440,  4441,  4442,  4443,  4444,  4445
  4446,  4447,  4448,  4449,  4450,  4451,  4452,  4453,  4454,  4455,  4456,  4457,  4458,  4459,  4460,  4461
  4462,  4463,  4464,  4465,  4466,  4467,  4468,  4469,  4471,  4473,  4475,  4477,  4478,  4479,  4481,  4482
  4484,  4486,  4487,  4488,  4490,  4491,  4493,  4495,  4496,  4497,  4499,  4500,  4502,  4504,  4505,  4506
  4507,  4509,  4511,  4513,  4514,  4515,  4516,  4518,  4520,  4521,  4522,  4524,  4525,  4527,  4528,  4534
  4537,  4538,  4540,  4542,  4544,  4548,  4549,  4550,  4551,  4552,  4553,  4554,  4555,  4556,  4557,  4558
  4559,  4560,  4561,  4562,  4563,  4564,  4565,  4566,  4567,  4568,  4569,  4570,  4571,  4572,  4573,  4574
  4575,  4576,  4577,  4578,  4579,  4580,  4581,  4582,  4583,  4584,  4585,  4586,  4587,  4588,  4589,  4590
  4591,  4592,  4593,  4594,  4595,  4596,  4597,  4598,  4599,  4600,  4601,  4602,  4603,  4604,  4605,  4606
  4607,  4608,  4609,  4610,  4611,  4612,  4613,  4614,  4615,  4616,  4617,  4618,  4619,  4620,  4621,  4622
  4623,  4624,  4625,  4626,  4627,  4628,  4629,  4630,  4631,  4632,  4633,  4634,  4635,  4636,  4637,  4638
  4639,  4640,  4641,  4642,  4643,  4644,  4645,  4646,  4647,  4648,  4649,  4650,  4651,  4652,  4653,  4654
  4655,  4656,  4657,  4658,  4659,  4660,  4661,  4662,  4663,  4664,  4665,  4666,  4667,  4668,  4669,  4670
  4671,  4672,  4673,  4674,  4675,  4676,  4677,  4678,  4679,  4680,  4681,  4682,  4683,  4684,  4685,  4686
  4687,  4688,  4689,  4690,  4691,  4692,  4693,  4694,  4695,  4696,  4697,  4698,  4699,  4700,  4701,  4702
  4703,  4704,  4705,  4706,  4707,  4708,  4709,  4710,  4711,  4712,  4713,  4714,  4715,  4716,  4717,  4718
  4719,  4720,  4721,  4722,  4723,  4724,  4725,  4726,  4727,  4728,  4729,  4730,  4731,  4732,  4733,  4734
  4735,  4736,  4737,  4738,  4739,  4740,  4741,  4742,  4743,  4744,  4745,  4746,  4747,  4748,  4749,  4750
  4751,  4752,  4753,  4754,  4755,  4756,  4757,  4758,  4759,  4760,  4761,  4762,  4763,  4764,  4765,  4766
  4767,  4768,  4769,  4770,  4771,  4772,  4773,  4774,  4775,  4776,  4777,  4778,  4779,  4780,  4781,  4782
  4783,  4784,  4785,  4786,  4787,  4788,  4789,  4790,  4791,  4792,  4793,  4794,  4795,  4796,  4797,  4798
  4799,  4800,  4801,  4802,  4803,  4804,  4805,  4806,  4807,  4808,  4809,  4810,  4811,  4812,  4813,  4814
  4815,  4816,  4817,  4818,  4819,  4820,  4821,  4822,  4823,  4824,  4825,  4826,  4827,  4828,  4829,  4830
  4831,  4832,  4833,  4834,  4835,  4836,  4837,  4838,  4839,  4840,  4841,  4842,  4843,  4844,  4845,  4846
  4847,  4848,  4849,  4850,  4851,  4852,  4853,  4854,  4855,  4856,  4857,  4858,  4859,  4860,  4861,  4862
  4863,  4864,  4865,  4866,  4867,  4868,  4869,  4870,  4871,  4872,  4873,  4874,  4875,  4876,  4877,  4878
  4879,  4880,  4881,  4882,  4883,  4884,  4885,  4886,  4887,  4888,  4889,  4890,  4891,  4892,  4893,  4894
  4895,  4896,  4897,  4898,  4899,  4900,  4901,  4902,  4903,  4904,  4905,  4906,  4907,  4908,  4909,  4910
  4911,  4912,  4913,  4914,  4915,  4916,  4917,  4918,  4919,  4920,  4921,  4922,  4923,  4924,  4925,  4926
  4927,  4928,  4929,  4930,  4931,  4932,  4933,  4934,  4935,  4936,  4937,  4938,  4939,  4940,  4941,  4942
  4943,  4944,  4945,  4946,  4947,  4948,  4949,  4950,  4951,  4952,  4953,  4954,  4955,  4956,  4957,  4958
  4959,  4960,  4961,  4962,  4963,  4964,  4965,  4966,  4967,  4968,  4969,  4970,  4971,  4972,  4973,  4974
  4975,  4976,  4977,  4978,  4979,  4980,  4981,  4982,  4983,  4984,  4985,  4986,  4987,  4988,  4989,  4990
  4991,  4992,  4993,  4994,  4995,  4996,  4997,  4998,  4999,  5000,  5001,  5002,  5003,  5004,  5005,  5006
  5007,  5008,  5009,  5010,  5011,  5012,  5013,  5014,  5015,  5016,  5017,  5018,  5019,  5020,  5021,  5022
  5023,  5024,  5025,  5026,  5027,  5028,  5029,  5030,  5031,  5032,  5033,  5034,  5035,  5036,  5037,  5038
  5039,  5040,  5041,  5042,  5043,  5044,  5045,  5046,  5047,  5048,  5049,  5050,  5051,  5052,  5053,  5054
  5055,  5056,  5057,  5058,  5059,  5060,  5061,  5062,  5063,  5064,  5065,  5066,  5067,  5068,  5069,  5070
  5071,  5072,  5073,  5074,  5075,  5076,  5077,  5078,  5079,  5080,  5081,  5082,  5083,  5084,  5085,  5086
  5087,  5088,  5089,  5090,  5091,  5092,  5093,  5094,  5095,  5096,  5097,  5098,  5099,  5100,  5101,  5102
  5103,  5104,  5105,  5106,  5107,  5108,  5109,  5110,  5111,  5112,  5113,  5114,  5115,  5116,  5117,  5118
  5119,  5120,  5121,  5122,  5123,  5124,  5125,  5126,  5127,  5128,  5129,  5130,  5131,  5132,  5133,  5134
  5135,  5136,  5137,  5138,  5139,  5140,  5141,  5142,  5143,  5144,  5145,  5146,  5147,  5148,  5149,  5150
  5151,  5152,  5153,  5154,  5155,  5156,  5157,  5158,  5159,  5160,  5161,  5162,  5163,  5164,  5165,  5166
  5167,  5168,  5169,  5170,  5171,  5172,  5173,  5174,  5175,  5176,  5177,  5178,  5179,  5180,  5181,  5182
  5183,  5184,  5185,  5186,  5187,  5188,  5189,  5190,  5191,  5192,  5193,  5194,  5195,  5196,  5197,  5198
  5199,  5200,  5201,  5202,  5203,  5204,  5205,  5206,  5207,  5208,  5209,  5210,  5211,  5212,  5213,  5214
  5215,  5216,  5217,  5218,  5219,  5220,  5221,  5222,  5223,  5224,  5225,  5226,  5227,  5228,  5229,  5230
  5231,  5232,  5233,  5234,  5235,  5236,  5237,  5238,  5239,  5240,  5241,  5242,  5243,  5244,  5245,  5246
  5247,  5248,  5249,  5250,  5251,  5252,  5253,  5254,  5255,  5256,  5257,  5258,  5259,  5260,  5261,  5262
  5263,  5264,  5265,  5266,  5267,  5268,  5269,  5270,  5271,  5272,  5273,  5274,  5275,  5276,  5277,  5278
  5279,  5280,  5281,  5282,  5283,  5284,  5285,  5286,  5287,  5288,  5289,  5290,  5291,  5292,  5293,  5294
  5295,  5296,  5297,  5298,  5299,  5300,  5301,  5302,  5303,  5304,  5305,  5306,  5307,  5308,  5309,  5310
  5311,  5312,  5313,  5314,  5315,  5316,  5317,  5318,  5319,  5320,  5321,  5322,  5323,  5324,  5325,  5326
  5327,  5328,  5329,  5330,  5331,  5332,  5333,  5334,  5335,  5336,  5337,  5338,  5339,  5340,  5341,  5342
  5343,  5344,  5345,  5346,  5347,  5348,  5349,  5350,  5351,  5352,  5353,  5354,  5355,  5356,  5357,  5358
  5359,  5360,  5361,  5362,  5363,  5364,  5365,  5366,  5367,  5368,  5369,  5370,  5371,  5372,  5373,  5374
  5375,  5376,  5377,  5378,  5379,  5380,  5381,  5382,  5383,  5384,  5385,  5386,  5387,  5388,  5389,  5390
  5391,  5392,  5393,  5394,  5395,  5396,  5397,  5398,  5399,  5400,  5401,  5402,  5403,  5404,  5405,  5406
  5407,  5408,  5409,  5410,  5411,  5412,  5413,  5414,  5415,  5416,  5417,  5418,  5419,  5420,  5421,  5422
  5423,  5424,  5425,  5426,  5427,  5428,  5429,  5430,  5431,  5432,  5433,  5434,  5435,  5436,  5437,  5438
  5439,  5440,  5441,  5442,  5443,  5444,  5445,  5446,  5447,  5448,  5449,  5450,  5451,  5452,  5453,  5454
  5455,  5456,  5457,  5458,  5459,  5460,  5461,  5462,  5463,  5464,  5465,  5466,  5467,  5468,  5469,  5470
  5471,  5472,  5473,  5474,  5475,  5476,  5477,  5478,  5479,  5480,  5481,  5482,  5483,  5484,  5485,  5486
  5487,  5488,  5489,  5490,  5491,  5492,  5493,  5494,  5495,  5496,  5497,  5498,  5499,  5500,  5501,  5502
  5503,  5504,  5505,  5506,  5507,  5508,  5509,  5510,  5511,  5512,  5513,  5514,  5515,  5516,  5517,  5518
  5519,  5520,  5521,  5522,  5523,  5524,  5525,  5526,  5527,  5528,  5529,  5530,  5531,  5532,  5533,  5534
  5535,  5536,  5537,  5538,  5539,  5540,  5541,  5542,  5543,  5544,  5545,  5546,  5547,  5548,  5549,  5550
  5551,  5552,  5553,  5554,  5555,  5556,  5557,  5558,  5559,  5560,  5561,  5562,  5563,  5564,  5565,  5566
  5567,  5568,  5569,  5570,  5571,  5572,  5573,  5574,  5575,  5576,  5577,  5578,  5579,  5580,  5581,  5582
  5583,  5584,  5585,  5586,  5587,  5588,  5589,  5590,  5591,  5592,  5593,  5594,  5595,  5596,  5597,  5598
  5599,  5600,  5601,  5602,  5603,  5604,  5605,  5606,  5607,  5608,  5609,  5610,  5611,  5612,  5613,  5614
  5615,  5616,  5617,  5618,  5619,  5620,  5621,  5622,  5623,  5624,  5625,  5626,  5627,  5628,  5629,  5630
  5631,  5632,  5633,  5634,  5635,  5636,  5637,  5638,  5639,  5640,  5641,  5642,  5643,  5644,  5645,  5646
  5647,  5648,  5649,  5650,  5651,  5652,  5653,  5654,  5655,  5656,  5657,  5658,  5659,  5660,  5661,  5662
  5663,  5664,  5665,  5666,  5667,  5668,  5669,  5670,  5671,  5672,  5673,  5674,  5675,  5676,  5677,  5678
  5679,  5680,  5681,  5682,  5683,  5684,  5685,  5686,  5687,  5688,  5689,  5690,  5691,  5692,  5693,  5694
  5695,  5696,  5697,  5698,  5699,  5700,  5701,  5702,  5703,  5704,  5705,  5706,  5707,  5708,  5709,  5710
  5711,  5712,  5713,  5714,  5715,  5716,  5717,  5718,  5719,  5720,  5721,  5722,  5723,  5724,  5725,  5726
  5727,  5728,  5729,  5730,  5731,  5732,  5733,  5734,  5735,  5736,  5737,  5738,  5739,  5740,  5741,  5742
  5743,  5744,  5745,  5746,  5747,  5748,  5749,  5750,  5751,  5752,  5753,  5754,  5755,  5756,  5757,  5758
  5759,  5760,  5761,  5762,  5763,  5764,  5765,  5766,  5767,  5768,  5769,  5770,  5771,  5772,  5773,  5774
  5775,  5776,  5777,  5778,  5779,  5780,  5781,  5782,  5783,  5784,  5785,  5786,  5787,  5788,  5789,  5790
  5791,  5792,  5793,  5794,  5795,  5796,  5797,  5798,  5799,  5800,  5801,  5802,  5803,  5804,  5805,  5806
  5807,  5808,  5809,  5810,  5811,  5812,  5813,  5814,  5815,  5816,  5817,  5818,  5819,  5820,  5821,  5822
  5823,  5824,  5825,  5826,  5827,  5828,  5829,  5830,  5831,  5832,  5833,  5834,  5835,  5836,  5837,  5838
  5839,  5840,  5841,  5842,  5843,  5844,  5845,  5846,  5847,  5848,  5849,  5850,  5851,  5852,  5853,  5854
  5855,  5856,  5857,  5858,  5859,  5860,  5861,  5862,  5863,  5864,  5865,  5866,  5867,  5868,  5869,  5870
  5871,  5872,  5873,  5874,  5875,  5876,  5877,  5878,  5879,  5880,  5881,  5882,  5883,  5884,  5885,  5886
  5887,  5888,  5889,  5890,  5891,  5892,  5893,  5894,  5895,  5896,  5897,  5898,  5899,  5900,  5901,  5902
  5903,  5904,  5905,  5906,  5907,  5908,  5909,  5910,  5911,  5912,  5913,  5914,  5915,  5916,  5917,  5918
  5919,  5920,  5921,  5922,  5923,  5924,  5925,  5926,  5927,  5928,  5929,  5930,  5931,  5932,  5933,  5934
  5935,  5936,  5937,  5938,  5939,  5940,  5941,  5942,  5943,  5944,  5945,  5946,  5947,  5948,  5949,  5950
  5951,  5952,  5953,  5954,  5955,  5956,  5957,  5958,  5959,  5960,  5961,  5962,  5963,  5964,  5965,  5966
  5967,  5968,  5969,  5970,  5971,  5972,  5973,  5974,  5975,  5976,  5977,  5978,  5979,  5980,  5981,  5982
  5983,  5984,  5985,  5986,  5987,  5988,  5989,  5990,  5991,  5992,  5993,  5994,  5995,  5996,  5997,  5998
  5999,  6000,  6003,  6005,  6007,  6009,  6011,  6013,  6016,  6017,  6019,  6021,  6022,  6023,  6024,  6025
  6026,  6027,  6028,  6029,  6030,  6031,  6032,  6033,  6034,  6035,  6036,  6037,  6038,  6039,  6040,  6041
  6042,  6043,  6044,  6045,  6046,  6047,  6048,  6049,  6050,  6051,  6052,  6053,  6054,  6055,  6056,  6057
  6058,  6059,  6060,  6061,  6062,  6063,  6064,  6065,  6066,  6067,  6068,  6069,  6070,  6071,  6072,  6073
  6074,  6075,  6076,  6077,  6078,  6079,  6080,  6081,  6082,  6083,  6084,  6085,  6086,  6087,  6088,  6089
  6090,  6091,  6092,  6093,  6094,  6095,  6096,  6097,  6098,  6099,  6100,  6101,  6102,  6103,  6104,  6105
  6106,  6107,  6108,  6109,  6110,  6111,  6112,  6113,  6114,  6115,  6116,  6117,  6118,  6119,  6120,  6121
  6122,  6123,  6124,  6125,  6126,  6127,  6128,  6129,  6130,  6131,  6132,  6133,  6134,  6135,  6136,  6137
  6138,  6139,  6140,  6141,  6142,  6143,  6144,  6145,  6146,  6147,  6148,  6149,  6150,  6151,  6152,  6153
  6154,  6155,  6156,  6157,  6158,  6159,  6160,  6161,  6162,  6163,  6164,  6165,  6166,  6167,  6168,  6169
  6170,  6171,  6172,  6173,  6174,  6175,  6176,  6177,  6178,  6179,  6180,  6181,  6182,  6183,  6184,  6185
  6186,  6187,  6188,  6189,  6190,  6191,  6192,  6193,  6194,  6195,  6196,  6197,  6198,  6199,  6200,  6201
  6202,  6203,  6204,  6205,  6206,  6207,  6208,  6209,  6210,  6211,  6212,  6213,  6214,  6215,  6216,  6217
  6218,  6219,  6220,  6221,  6222,  6223,  6224,  6225,  6226,  6227,  6228,  6229,  6230,  6231,  6232,  6233
  6234,  6235,  6236,  6237,  6238,  6239,  6240,  6241,  6242,  6243,  6244,  6245,  6246,  6247,  6248,  6249
  6250,  6251,  6252,  6253,  6254,  6255,  6256,  6257,  6258,  6259,  6260,  6261,  6262,  6263,  6264,  6265
  6266,  6267,  6268,  6269,  6270,  6271,  6272,  6273,  6274,  6275,  6276,  6277,  6278,  6279,  6280,  6281
  6282,  6283,  6284,  6285,  6286,  6287,  6288,  6289,  6290,  6291,  6292,  6293,  6294,  6295,  6296,  6297
  6298,  6299,  6300,  6301,  6302,  6303,  6304,  6305,  6306,  6307,  6308,  6309,  6310,  6311,  6312,  6313
  6314,  6315,  6316,  6317,  6318,  6319,  6320,  6321,  6322,  6323,  6324,  6325,  6326,  6327,  6328,  6329
  6330,  6331,  6332,  6333,  6334,  6335,  6336,  6337,  6338,  6339,  6340,  6341,  6342,  6343,  6344,  6345
  6346,  6347,  6348,  6349,  6350,  6351,  6352,  6353,  6354,  6355,  6356,  6357,  6358,  6359,  6360,  6361
  6362,  6363,  6364,  6365,  6366,  6367,  6368,  6369,  6370,  6371,  6372,  6373,  6374,  6375,  6376,  6377
  6378,  6379,  6380,  6381,  6382,  6383,  6384,  6385,  6386,  6387,  6388,  6389,  6390,  6391,  6392,  6393
  6394,  6395,  6396,  6397,  6398,  6399,  6400,  6401,  6402,  6403,  6404,  6405,  6406,  6407,  6408,  6409
  6410,  6411,  6412,  6413,  6414,  6415,  6416,  6417,  6418,  6419,  6420,  6421,  6422,  6423,  6424,  6425
  6426,  6427,  6428,  6429,  6430,  6431,  6432,  6433,  6434,  6435,  6436,  6437,  6438,  6439,  6440,  6441
  6442,  6443,  6444,  6445,  6446,  6447,  6448,  6449,  6450,  6451,  6452,  6453,  6454,  6455,  6456,  6457
  6458,  6459,  6460,  6461,  6462,  6463,  6464,  6465,  6466,  6467,  6468,  6469,  6470,  6471,  6472,  6473
  6474,  6475,  6476,  6477,  6478,  6479,  6480,  6481,  6482,  6483,  6484,  6485,  6486,  6487,  6488,  6489
  6490,  6491,  6492,  6493,  6494,  6495,  6496,  6497,  6498,  6499,  6500,  6501,  6502,  6503,  6504,  6505
  6506,  6507,  6508,  6509,  6510,  6511,  6512,  6513,  6514,  6515,  6516,  6517,  6518,  6519,  6520,  6521
  6522,  6523,  6524,  6525,  6526,  6527,  6528,  6529,  6530,  6531,  6532,  6533,  6534,  6535,  6536,  6537
  6538,  6539,  6540,  6541,  6542,  6543,  6544,  6545,  6546,  6547,  6548,  6549,  6550,  6551,  6552,  6553
  6554,  6555,  6556,  6557,  6558,  6559,  6560,  6561,  6562,  6563,  6564,  6565,  6566,  6567,  6568,  6569
  6570,  6571,  6572,  6573,  6574,  6575,  6576,  6577,  6578,  6579,  6580,  6581,  6582,  6583,  6584,  6585
  6586,  6587,  6588,  6589,  6590,  6591,  6592,  6593,  6594,  6595,  6596,  6597,  6598,  6599,  6600,  6601
  6602,  6603,  6604,  6605,  6606,  6607,  6608,  6609,  6610,  6611,  6612,  6613,  6614,  6615,  6616,  6617
  6618,  6619,  6620,  6621,  6622,  6623,  6624,  6625,  6626,  6627,  6628,  6629,  6630,  6631,  6632,  6633
  6634,  6635,  6636,  6637,  6638,  6639,  6640,  6641,  6642,  6643,  6644,  6645,  6646,  6647,  6648,  6649
  6650,  6651,  6652,  6653,  6654,  6655,  6656,  6657,  6658,  6659,  6660,  6661,  6662,  6663,  6664,  6665
  6666,  6667,  6668,  6669,  6670,  6671,  6672,  6673,  6674,  6675,  6676,  6677,  6678,  6679,  6680,  6681
  6682,  6683,  6684,  6685,  6686,  6687,  6688,  6689,  6690,  6691,  6692,  6693,  6694,  6695,  6696,  6697
  6698,  6699,  6700,  6701,  6702,  6703,  6704,  6705,  6706,  6707,  6708,  6709,  6710,  6711,  6712,  6713
  6714,  6715,  6716,  6717,  6718,  6719,  6720,  6721,  6722,  6723,  6724,  6725,  6726,  6727,  6728,  6729
  6730,  6731,  6732,  6733,  6734,  6735,  6736,  6737,  6738,  6739,  6740,  6741,  6742,  6743,  6744,  6745
  6746,  6747,  6748,  6749,  6750,  6751,  6752,  6753,  6754,  6755,  6756,  6757,  6758,  6759,  6760,  6761
  6762,  6763,  6764,  6765,  6766,  6767,  6768,  6769,  6770,  6771,  6772,  6773,  6774,  6775,  6776,  6777
  6778,  6779,  6780,  6781,  6782,  6783,  6784,  6785,  6786,  6787,  6788,  6789,  6790,  6791,  6792,  6793
  6794,  6795,  6796,  6797,  6798,  6799,  6800,  6801,  6802,  6803,  6804,  6805,  6806,  6807,  6808,  6809
  6810,  6811,  6812,  6813,  6814,  6815,  6816,  6817,  6818,  6819,  6820,  6821,  6822,  6823,  6824,  6825
  6826,  6827,  6828,  6829,  6830,  6831,  6832,  6833,  6834,  6835,  6836,  6837,  6838,  6839,  6840,  6841
  6842,  6843,  6844,  6845,  6846,  6847,  6848,  6849,  6850,  6851,  6852,  6853,  6854,  6855,  6856,  6857
  6858,  6859,  6860,  6861,  6862,  6863,  6864,  6865,  6866,  6867,  6868,  6869,  6870,  6871,  6872,  6873
  6874,  6875,  6876,  6877,  6878,  6879,  6880,  6881,  6882,  6883,  6884,  6885,  6886,  6887,  6888,  6889
  6890,  6891,  6892,  6893,  6894,  6895,  6896,  6897,  6898,  6899,  6900,  6901,  6902,  6903,  6904,  6905
  6906,  6907,  6908,  6909,  6910,  6911,  6912,  6913,  6914,  6915,  6916,  6917,  6918,  6919,  6920,  6921
  6922,  6923,  6924,  6925,  6926,  6927,  6928,  6929,  6930,  6931,  6932,  6933,  6934,  6935,  6936,  6937
  6938,  6939,  6940,  6941,  6942,  6943,  6944,  6945,  6946,  6947,  6948,  6949,  6950,  6951,  6952,  6953
  6954,  6955,  6956,  6957,  6958,  6959,  6960,  6961,  6962,  6963,  6964,  6965,  6966,  6967,  6968,  6969
  6970,  6971,  6972,  6973,  6974,  6975,  6976,  6977,  6978,  6979,  6980,  6981,  6982,  6983,  6984,  6985
  6986,  6987,  6988,  6989,  6990,  6991,  6992,  6993,  6994,  6995,  6996,  6997,  6998,  6999,  7000,  7001
  7002,  7003,  7004,  7005,  7006,  7007,  7008,  7009,  7010,  7011,  7012,  7013,  7014,  7015,  7016,  7017
  7018,  7019,  7020,  7021,  7022,  7023,  7024,  7025,  7026,  7027,  7028,  7029,  7030,  7031,  7032,  7033
  7034,  7035,  7036,  7037,  7038,  7039,  7040,  7041,  7042,  7043,  7044,  7045,  7046,  7047,  7048,  7049
  7050,  7051,  7052,  7053,  7054,  7055,  7056,  7057,  7058,  7059,  7060,  7061,  7062,  7063,  7064,  7065
  7066,  7067,  7068,  7069,  7070,  7071,  7072,  7073,  7074,  7075,  7076,  7077,  7078,  7079,  7080,  7081
  7082,  7083,  7084,  7085,  7086,  7087,  7088,  7089,  7090,  7091,  7092,  7093,  7094,  7095,  7096,  7097
  7098,  7099,  7100,  7101,  7102,  7103,  7104,  7105,  7106,  7107,  7108,  7109,  7110,  7111,  7112,  7113
  7114,  7115,  7116,  7117,  7118,  7119,  7120,  7121,  7122,  7123,  7124,  7125,  7126,  7127,  7128,  7129
  7130,  7131,  7132,  7133,  7134,  7135,  7136,  7137,  7138,  7139,  7140,  7141,  7142,  7143,  7144,  7145
  7146,  7147,  7148,  7149,  7150,  7151,  7152,  7153,  7154,  7155,  7156,  7157,  7158,  7159,  7160,  7161
  7162,  7163,  7164,  7165,  7166,  7167,  7168,  7169,  7170,  7171,  7172,  7173,  7174,  7175,  7176,  7177
  7178,  7179,  7180,  7181,  7182,  7183,  7184,  7185,  7186,  7187,  7188,  7189,  7190,  7191,  7192,  7193
  7194,  7195,  7196,  7197,  7198,  7199,  7200,  7201,  7202,  7203,  7204,  7205,  7206,  7207,  7208,  7209
  7210,  7211,  7212,  7213,  7214,  7215,  7216,  7217,  7218,  7219,  7220,  7221,  7222,  7223,  7224,  7225
  7226,  7227,  7228,  7229,  7230,  7231,  7232,  7233,  7234,  7235,  7236,  7237,  7238,  7239,  7240,  7241
  7242,  7243,  7244,  7245,  7246,  7247,  7248,  7249,  7250,  7251,  7252,  7253,  7254,  7255,  7256,  7257
  7258,  7259,  7260,  7261,  7262,  7263,  7264,  7265,  7266,  7267,  7268,  7269,  7270,  7271,  7272,  7273
  7274,  7275,  7276,  7277,  7278,  7279,  7280,  7281,  7282,  7283,  7284,  7285,  7286,  7287,  7288,  7289
  7290,  7291,  7292,  7293,  7294,  7295,  7296,  7297,  7298,  7299,  7300,  7301,  7302,  7303,  7304,  7305
  7306,  7307,  7308,  7309,  7310,  7311,  7312,  7313,  7314,  7315,  7316,  7317,  7318,  7319,  7320,  7321
  7322,  7323,  7324,  7325,  7326,  7327,  7328,  7329,  7330,  7331,  7332,  7333,  7334,  7335,  7336,  7337
  7338,  7339,  7340,  7341,  7342,  7343,  7344,  7345,  7346,  7347,  7348,  7349,  7350,  7351,  7352,  7353
  7354,  7355,  7356,  7357,  7358,  7359,  7360,  7361,  7362,  7363,  7364,  7365,  7366,  7367,  7368,  7369
  7370,  7371,  7372,  7373,  7374,  7375,  7376,  7377,  7378,  7379,  7380,  7381,  7382,  7383,  7384,  7385
  7386,  7387,  7388,  7389,  7390,  7391,  7392,  7393,  7394,  7395,  7396,  7397,  7398,  7399,  7400,  7401
  7402,  7403,  7404,  7405,  7406,  7407,  7408,  7409,  7410,  7411,  7412,  7413,  7414,  7415,  7416,  7417
  7418,  7419,  7420,  7421,  7422,  7423,  7424,  7425,  7426,  7427,  7428,  7429,  7430,  7431,  7432,  7433
  7434,  7435,  7436,  7437,  7438,  7439,  7440,  7441,  7442,  7443,  7444,  7445,  7446,  7447,  7448,  7449
  7450,  7451,  7452,  7453,  7454,  7455,  7456,  7457,  7458,  7459,  7460,  7461,  7462,  7463,  7464,  7465
  7466,  7467,  7468,  7469,  7470,  7471,  7472,  7473,  7474,  7475,  7476,  7477,  7478,  7479,  7480,  7481
  7482,  7483,  7484,  7485,  7486,  7487,  7488,  7489,  7490,  7491,  7492,  7493,  7494,  7495,  7496,  7497
  7498,  7499,  7500,  7501,  7502,  7503,  7504,  7505,  7506,  7507,  7508,  7509,  7510,  7511,  7512,  7513
  7514,  7515,  7516,  7517,  7518,  7519,  7520,  7521,  7522,  7523,  7524,  7525,  7526,  7527,  7528,  7529
  7530,  7531,  7532,  7533,  7534,  7535,  7536,  7537,  7538,  7539,  7540,  7541,  7542,  7543,  7544,  7545
  7546,  7547,  7548,  7549,  7550,  7551,  7552,  7553,  7554,  7555,  7556,  7557,  7558,  7559,  7560,  7561
  7562,  7563,  7564,  7565,  7566,  7567,  7568,  7569,  7570,  7571,  7572,  7573,  7574,  7575,  7576,  7577
  7578,  7579,  7580,  7581,  7582,  7583,  7584,  7585,  7586,  7587,  7588,  7589,  7590,  7591,  7592,  7593
  7594,  7595,  7596,  7597,  7598,  7599,  7600,  7601,  7602,  7603,  7604,  7605,  7606,  7607,  7608,  7609
  7610,  7611,  7612,  7613,  7614,  7615,  7616,  7617,  7618,  7619,  7620,  7621,  7622,  7623,  7624,  7625
  7626,  7627,  7628,  7629,  7630,  7631,  7632,  7633,  7634,  7635,  7636,  7637,  7638,  7639,  7640,  7641
  7642,  7643,  7644,  7645,  7646,  7647,  7648,  7649,  7650,  7651,  7652,  7653,  7654,  7655,  7656,  7657
  7658,  7660,  7661,  7663,  7666,  7672,  7676,  7681,  7684,  7688,  7693,  7696,  7700,  7704,  7708,  7712
  7716,  7720,  7724,  7728,  7732,  7736,  7740,  7750,  7780,  7784,  7788,  7792,  7795,  7798,  7804,  7807
  7811,  7814,  7818,  7822,  7828,  7831,  7834,  7838,  7842,  7847,  7852,  7856,  7860,  7864,  7868,  7872
  7876,  7880,  7884,  7887,  7891,  7896,  7899,  7903,  7907,  7911,  7914,  7918,  7923,  7926,  7937,  7940
  7944,  7948,  7953,  7956,  7960,  7966,  7969,  7973,  7976,  7979,  7982,  7985,  7987,  7991,  7994,  7995
  7997,  8009,  8013,  8017,  8021,  8025,  8029,  8033,  8037,  8041,  8045,  8049,  8053,  8057,  8061,  8065
  8068,  8071,  8075,  8079,  8083,  8087,  8091,  8095,  8099,  8103,  8107,  8111,  8115,  8119,  8123,  8127
  8131,  8135,  8139,  8143,  8147,  8151,  8155,  8159,  8163,  8167,  8171,  8175,  8179,  8183,  8187,  8191
  8203,  8206,  8210,  8214,  8218,  8221,  8237,  8241,  8245,  8249,  8253,  8257,  8262,  8265,  8269,  8273
  8277,  8281,  8285,  8289,  8325,  8329,  8340,  8346,  8358,  8361,  8368,  8373,  8377,  8381,  8385,  8389
  8393,  8397,  8401,  8405,  8409,  8413,  8417,  8421,  8425,  8429,  8433,  8437,  8441,  8445,  8449,  8453
  8456,  8462,  8466,  8470,  8474,  8478,  8482,  8486,  8490,  8494,  8498,  8502,  8506,  8510,  8514,  8518
  8522,  8526,  8530,  8534,  8538,  8542,  8546,  8550,  8554,  8562,  8566,  8583,  8587,  8591,  8595,  8599
  8612,  8622,  8626,  8630,  8634,  8638,  8642,  8646,  8650,  8654,  8658,  8662,  8666,  8670,  8674,  8678
  8682,  8711,  8715,  8724,  8727,  8730,  8731,  8744,  8751,  8755,  8759,  8772,  8776,  8790,  8793,  8796
  8799,  8802,  8805,  8808,  8811,  8814,  8817,  8826,  8866,  8893,  8895,  8896,  8905,  8915,  8919,  8936
  8940,  8962,  8971,  8975,  8987,  8991,  8995,  8999,  9003,  9007,  9011,  9015,  9019,  9023,  9027,  9031
  9035,  9039,  9043,  9047,  9051,  9055,  9059,  9062,  9077,  9081,  9085,  9089,  9093,  9097,  9104,  9108
  9118,  9122,  9130,  9145,  9164,  9171,  9187,  9199,  9202,  9211,  9218,  9219,  9236,  9240,  9251,  9254
  9263,  9270,  9287,  9291,  9312,  9320,  9336,  9340,  9349,  9353,  9363,  9372,  9376,  9380,  9384,  9388
  9392,  9396,  9400,  9404,  9408,  9412,  9416,  9420,  9424,  9428,  9432,  9436,  9440,  9444,  9447,  9474
  9484,  9485,  9488,  9491,  9499,  9503,  9517,  9522,  9526,  9543,  9546,  9549,  9552,  9555,  9559,  9582
  9586,  9594,  9597,  9600,  9603,  9606,  9611,  9615,  9710,  9714,  9728,  9730,  9733,  9734,  9736,  9739
  9744,  9746,  9749,  9750,  9833,  9837,  9841,  9845,  9849,  9853,  9857,  9861,  9865,  9869,  9873,  9877
  9881,  9885,  9889,  9893,  9897,  9901,  9905,  9909,  9913,  9917,  9921,  9925,  9937,  9940,  9944,  9947
  9948,  9951,  9956,  9958,  9961,  9962,  9970,  9972,  9978,  9982, 10055, 10058, 10066, 10067, 10068, 10069
 10070, 10071, 10072, 10073, 10074, 10075, 10076, 10077, 10078, 10079, 10080, 10081, 10082, 10083, 10084, 10085
 10086, 10087, 10088, 10089, 10090, 10091, 10092, 10093, 10094, 10095, 10096, 10097, 10098, 10099, 10100, 10101
 10102, 10103, 10104, 10105, 10106, 10107, 10108, 10109, 10110, 10111, 10112, 10113, 10114, 10115, 10116, 10117
 10118, 10119, 10120, 10121, 10122, 10123, 10124, 10125, 10126, 10127, 10128, 10129, 10130, 10131, 10132, 10133
 10134, 10135, 10136, 10137, 10138, 10139, 10140, 10141, 10142, 10143, 10144, 10145, 10146, 10147, 10148, 10149
 10150, 10151, 10152, 10153, 10154, 10155, 10156, 10157, 10158, 10159, 10160, 10161, 10162, 10163, 10164, 10165
 10166, 10167, 10168, 10169, 10170, 10171, 10172, 10173, 10174, 10175, 10176, 10177, 10178, 10179, 10180, 10181
 10182, 10183, 10184, 10185, 10186, 10187, 10188, 10189, 10190, 10191, 10192, 10193, 10194, 10195, 10196, 10197
 10198, 10199, 10200, 10201, 10202, 10203, 10204, 10205, 10206, 10207, 10208, 10209, 10210, 10211, 10212, 10213
 10214, 10215, 10216, 10217, 10218, 10219, 10220, 10221, 10222, 10223, 10224, 10225, 10226, 10227, 10228, 10229
 10230, 10231, 10232, 10233, 10234, 10235, 10236, 10237, 10238, 10239, 10240, 10241, 10242, 10243, 10244, 10245
 10246, 10247, 10248, 10249, 10250, 10251, 10252, 10253, 10254, 10255, 10256, 10257, 10258, 10259, 10260, 10261
 10262, 10263, 10264, 10265, 10266, 10267, 10268, 10269, 10270, 10271, 10272, 10273, 10274, 10275, 10276, 10277
 10278, 10279, 10280, 10281, 10282, 10283, 10284, 10285, 10286, 10287, 10288, 10289, 10290, 10291, 10292, 10293
 10294, 10295, 10296, 10297, 10298, 10299, 10300, 10301, 10302, 10303, 10304, 10305, 10306, 10307, 10308, 10309
 10310, 10311, 10312, 10313, 10314, 10315, 10316, 10317, 10318, 10319, 10320, 10321, 10322, 10323, 10324, 10325
 10326, 10327, 10328, 10329, 10330, 10331, 10332, 10333, 10334, 10335, 10336, 10337, 10338, 10339, 10340, 10341
 10342, 10343, 10344, 10345, 10346, 10347, 10348, 10349, 10350, 10351, 10352, 10353, 10354, 10355, 10356, 10357
 10358, 10359, 10360, 10361, 10362, 10363, 10364, 10365, 10366, 10367, 10368, 10369, 10370, 10371, 10372, 10373
 10374, 10375, 10376, 10377, 10378, 10379, 10380, 10381, 10382, 10383, 10384, 10385, 10386, 10387, 10388, 10389
 10390, 10391, 10392, 10393, 10394, 10395, 10396, 10397, 10398, 10399, 10400, 10401, 10402, 10403, 10404, 10405
 10406, 10407, 10408, 10409, 10410, 10411, 10412, 10413, 10414, 10415, 10416, 10417, 10418, 10419, 10420, 10421
 10422, 10423, 10424, 10425, 10426, 10427, 10428, 10429, 10430, 10431, 10432, 10433, 10434, 10435, 10436, 10437
 10438, 10439, 10440, 10441, 10442, 10443, 10444, 10445, 10446, 10447, 10448, 10449, 10450, 10451, 10452, 10453
 10454, 10455, 10456, 10457, 10458, 10459, 10460, 10461, 10462, 10463, 10464, 10465, 10466, 10467, 10468, 10469
 10470, 10471, 10472, 10473, 10474, 10475, 10476, 10477, 10478, 10479, 10480, 10481, 10482, 10483, 10484, 10485
 10486, 10487, 10488, 10489, 10490, 10491, 10492, 10493, 10494, 10495, 10496, 10497, 10498, 10499, 10500, 10501
 10502, 10503, 10504, 10505, 10506, 10507, 10508, 10509, 10510, 10511, 10512, 10513, 10514, 10515, 10516, 10517
 10518, 10519, 10520, 10521, 10522, 10523, 10524, 10525, 10526, 10527, 10528, 10529, 10530, 10531, 10532, 10533
 10534, 10535, 10536, 10537, 10538, 10539, 10540, 10541, 10542, 10543, 10544, 10545, 10546, 10547, 10548, 10549
 10550, 10551, 10552, 10553, 10554, 10555, 10556, 10557, 10558, 10559, 10560, 10561, 10562, 10563, 10564, 10565
 10566, 10567, 10568, 10569, 10570, 10571, 10572, 10573, 10574, 10575, 10576, 10577, 10578, 10579, 10580, 10581
 10582, 10583, 10584, 10585, 10586, 10587, 10588, 10589, 10590, 10591, 10592, 10593, 10594, 10595, 10596, 10597
 10598, 10599, 10600, 10601, 10602, 10603, 10604, 10605, 10606, 10607, 10608, 10609, 10610, 10611, 10612, 10613
 10614, 10615, 10616, 10617, 10618, 10619, 10620, 10621, 10622, 10623, 10624, 10625, 10626, 10627, 10628, 10629
 10630, 10631, 10632, 10633, 10634, 10635, 10636, 10637, 10638, 10639, 10640, 10641, 10642, 10643, 10644, 10645
 10646, 10647, 10648, 10649, 10650, 10651, 10652, 10653, 10654, 10655, 10656, 10657, 10658, 10659, 10660, 10661
 10662, 10663, 10664, 10665, 10666, 10667, 10668, 10669, 10670, 10671, 10672, 10673, 10674, 10675, 10676, 10677
 10678, 10679, 10680, 10681, 10682, 10683, 10684, 10685, 10686, 10687, 10688, 10689, 10690, 10691, 10692, 10693
 10694, 10695, 10696, 10697, 10698, 10699, 10700, 10701, 10702, 10703, 10704, 10705, 10706, 10707, 10708, 10709
 10710, 10711, 10712, 10713, 10714, 10715, 10716, 10717, 10718, 10719, 10720, 10721, 10722, 10723, 10724, 10725
 10726, 10727, 10728, 10729, 10730, 10731, 10732, 10733, 10734, 10735, 10736, 10737, 10738, 10739, 10740, 10741
 10742, 10743, 10744, 10745, 10746, 10747, 10748, 10749, 10750, 10751, 10752, 10753, 10754, 10755, 10756, 10757
 10758, 10759, 10760, 10761, 10762, 10763, 10764, 10765, 10766, 10767, 10768, 10769, 10770, 10771, 10772, 10773
 10774, 10775, 10776, 10777, 10778, 10779, 10780, 10781, 10782, 10783, 10784, 10785, 10786, 10787, 10788, 10789
 10790, 10791, 10792, 10793, 10794, 10795, 10796, 10797, 10798, 10799, 10800, 10801, 10802, 10803, 10804, 10805
 10806, 10807, 10808, 10809, 10810, 10811, 10812, 10813, 10814, 10815, 10816, 10817, 10818, 10819, 10820, 10821
 10822, 10823, 10824, 10825, 10826, 10827, 10828, 10829, 10830, 10866, 10872, 11002, 11005, 11007, 11009, 11011
 11013, 11015, 11017, 11019, 11021, 11023, 11025, 11027, 11029, 11031, 11033, 11035, 11037, 11039, 11041, 11043
 11045, 11047, 11049, 11059, 11066, 11069, 11072, 11075, 11078, 11081, 11084, 11087, 11090, 11093, 11096, 11099
 11102, 11105, 11108, 11111, 11114, 11117, 11120, 11123, 11126, 11129, 11132, 11135, 11385, 11526, 11640, 11644
 11783, 11784, 11788, 11789, 11923, 11927, 12192, 12193, 12198, 12199, 12200, 12201, 12202, 12204, 12207, 12209
 12211, 12213, 12214, 12215, 12216, 12217, 12218, 12219, 12220, 12221, 12222, 12223, 12224, 12225, 12226, 12227
 12228, 12229, 12230, 12231, 12232, 12233, 12234, 12235, 12236, 12237, 12238, 12239, 12240, 12241, 12242, 12243
 12244, 12245, 12246, 12247
*Elset, elset=solid
    7,    8,    9,   10,   11,   12,   13,   14,   15,   16,   17,   18,   19,   20,   21,   22
   23,   24,   25,   26,   27,   28,   29,   30,   31,   32,   33,   34,   35,   36,   37,   38
   39,   40,   41,   42,   43,   44,   45,   46,   47,   48,   49,   50,   51,   52,   53,   54
   55,   56,   57,   58,   59,   60,   61,   62,   63,   64,   65,   66,   67,   68,   69,   70
   71,   72,   73,   74,   75,   76,   77,   78,   79,   80,   81,   82,   83,   84,   85,   86
   87,   88,   89,   90,   91,   92,   93,   94,   95,   96,   97,   98,   99,  100,  101,  102
  130,  131,  132,  133,  134,  135,  136,  137,  138,  139,  140,  141,  142,  143,  144,  145
  146,  147,  148,  149,  150,  151,  152,  153,  154,  155,  156,  157,  158,  159,  160,  161
  162,  163,  164,  165,  166,  167,  168,  169,  170,  171,  172,  173,  174,  175,  176,  177
  178,  179,  180,  181,  182,  183,  184,  185,  186,  187,  188,  189,  190,  191,  192,  193
  194,  195,  196,  197,  198,  199,  200,  201,  202,  203,  204,  205,  206,  207,  208,  209
  210,  211,  212,  213,  214,  215,  216,  217,  218,  219,  220,  221,  222,  223,  224,  225
  226,  227,  228,  229,  230,  231,  232,  233,  234,  235,  236,  237,  238,  239,  240,  241
  242,  243,  244,  245,  246,  247,  248,  249,  250,  251,  252,  253,  254,  255,  256,  257
  258,  259,  260,  261,  262,  263,  264,  265,  266,  267,  268,  269,  270,  271,  272,  273
  274,  275,  276,  277,  278,  279,  280,  281,  282,  283,  284,  285,  286,  287,  288,  289
  290,  291,  292,  293,  294,  295,  296,  297,  298,  299,  300,  301,  302,  303,  304,  305
  306,  307,  308,  309,  310,  311,  312,  313,  314,  315,  316,  317,  318,  319,  320,  321
  322,  323,  324,  325,  326,  327,  328,  329,  330,  331,  332,  333,  334,  335,  336,  337
  338,  339,  340,  341,  342,  343,  344,  345,  346,  347,  348,  349,  350,  351,  352,  353
  354,  355,  356,  357,  358,  359,  360,  361,  362,  363,  364,  365,  366,  367,  368,  369
  370,  371,  372,  373,  374,  375,  376,  377,  378,  379,  380,  381,  382,  383,  384,  385
  386,  387,  388,  389,  390,  391,  392,  393,  394,  395,  396,  397,  398,  399,  400,  401
  402,  403,  404,  405,  406,  407,  408,  409,  410,  411,  412,  413,  414,  415,  416,  417
  418,  419,  420,  421,  422,  423,  424,  425,  426,  427,  428,  429,  430,  431,  432,  433
  434,  435,  436,  437,  438,  439,  440,  441,  442,  443,  444,  445,  446,  447,  448,  449
  450,  451,  452,  453,  454,  455,  456,  457,  458,  459,  460,  461,  462,  463,  464,  465
  466,  467,  468,  469,  470,  471,  472,  473,  474,  475,  476,  477,  478,  479,  480,  481
  482,  483,  484,  485,  486,  487,  488,  489,  490,  491,  492,  493,  494,  495,  496,  497
  498,  499,  500,  501,  502,  503,  504,  505,  506,  507,  508,  509,  510,  511,  512,  513
  514,  515,  516,  517,  518,  519,  520,  521,  522,  523,  524,  525,  526,  527,  528,  529
  530,  531,  532,  533,  534,  535,  536,  537,  538,  539,  540,  541,  542,  543,  544,  545
  546,  547,  548,  549,  550,  551,  552,  553,  554,  555,  556,  557,  558,  559,  560,  561
  562,  563,  564,  565,  566,  567,  568,  569,  570,  571,  572,  573,  574,  575,  576,  577
  578,  579,  580,  581,  582,  583,  584,  585,  586,  587,  588,  589,  590,  591,  592,  593
  594,  595,  596,  597,  598,  599,  600,  601,  602,  603,  604,  605,  606,  607,  608,  609
  610,  611,  612,  613,  614,  615,  616,  617,  618,  619,  620,  621,  622,  623,  624,  625
  626,  627,  628,  629,  630,  631,  632,  633,  634,  635,  636,  637,  638,  639,  640,  641
  642,  643,  644,  645,  646,  647,  648,  649,  650,  651,  652,  653,  654,  655,  656,  657
  658,  659,  660,  661,  662,  663,  664,  665,  666,  667,  668,  669,  670,  671,  672,  673
  674,  675,  676,  677,  678,  679,  680,  681,  682,  683,  684,  685,  686,  687,  688,  689
  690,  691,  692,  693,  694,  695,  696,  697,  698,  699,  700,  701,  702,  703,  704,  705
  706,  707,  708,  709,  710,  711,  712,  713,  714,  715,  716,  717,  718,  719,  720,  721
  722,  723,  724,  725,  726,  737,  738,  739,  740,  741,  742,  743,  744,  745,  746,  747
  748,  749,  750,  751,  752,  753,  754,  755,  756,  757,  758,  759,  760,  761,  762,  763
  764,  765,  766,  767,  768,  769,  770,  771,  772,  773,  774,  775,  776,  777,  778,  779
  780,  781,  782,  783,  784,  785,  786,  787,  788,  789,  790,  791,  792,  793,  794,  795
  796,  797,  798,  799,  800,  801,  802,  803,  804,  805,  806,  807,  808,  809,  810,  811
  812,  813,  814,  815,  816,  817,  818,  819,  820,  821,  822,  823,  824,  825,  826,  827
  828,  829,  830,  831,  832,  833,  834,  835,  836,  837,  838,  839,  840,  841,  842,  843
  844,  845,  846,  847,  848,  849,  850,  851,  852,  853,  854,  855,  856,  857,  858,  859
  860,  861,  862,  863,  864,  865,  866,  867,  868,  869,  870,  871,  872,  873,  874,  875
  876,  877,  878,  879,  880,  881,  882,  883,  884,  885,  886,  887,  888,  889,  890,  891
  892,  893,  894,  895,  896,  897,  898,  899,  900,  901,  902,  903,  904,  905,  906,  907
  908,  909,  910,  911,  912,  913,  914,  915,  916,  917,  918,  919,  920,  921,  922,  923
  924,  925,  926,  927,  928,  929,  930,  931,  932,  933,  934,  935,  936,  937,  938,  939
  940,  941,  942,  943,  944,  945,  946,  947,  948,  949,  950,  951,  952,  953,  954,  955
  956,  957,  958,  959,  960,  961,  962,  963,  964,  965,  966,  967,  968,  969,  970,  971
  972,  973,  974,  975,  976,  977,  978,  979,  980,  981,  982,  983,  984,  985,  986,  987
  988,  989,  990,  991,  992,  993,  994,  995,  996,  997,  998,  999, 1000, 1001, 1002, 1003
 1004, 1005, 1006, 1007, 1008, 1009, 1010, 1011, 1012, 1013, 1014, 1015, 1016, 1017, 1018, 1019
 1020, 1021, 1022, 1023, 1024, 1025, 1026, 1027, 1028, 1029, 1030, 1031, 1032, 1033, 1034, 1035
 1036, 1037, 1038, 1039, 1040, 1041, 1042, 1043, 1044, 1045, 1046, 1047, 1048, 1049, 1050, 1051
 1052, 1053, 1054, 1055, 1056, 1057, 1058, 1059, 1060, 1061, 1062, 1063, 1064, 1065, 1066, 1067
 1068, 1069, 1070, 1071, 1072, 1073, 1074, 1075, 1076, 1077, 1078, 1079, 1080, 1081, 1082, 1083
 1084, 1085, 1086, 1087, 1088, 1089, 1090, 1091, 1092, 1093, 1094, 1095, 1096, 1097, 1098, 1099
 1100, 1101, 1102, 1103, 1104, 1105, 1106, 1107, 1108, 1109, 1110, 1111, 1112, 1113, 1114, 1115
 1116, 1117, 1118, 1119, 1120, 1121, 1122, 1123, 1124, 1125, 1126, 1127, 1128, 1129, 1130, 1131
 1132, 1133, 1134, 1135, 1136, 1137, 1138, 1139, 1140, 1141, 1142, 1143, 1144, 1145, 1146, 1147
 1148, 1149, 1150, 1151, 1152, 1153, 1154, 1155, 1156, 1157, 1158, 1159, 1160, 1161, 1162, 1163
 1164, 1165, 1166, 1167, 1168, 1169, 1170, 1171, 1172, 1173, 1174, 1175, 1176, 1177, 1178, 1179
 1180, 1181, 1182, 1183, 1184, 1185, 1186, 1187, 1188, 1189, 1190, 1191, 1192, 1193, 1194, 1195
 1196, 1197, 1198, 1199, 1200, 1201, 1202, 1203, 1204, 1205, 1206, 1207, 1208, 1209, 1210, 1211
 1212, 1213, 1214, 1215, 1216, 1217, 1218, 1219, 1220, 1221, 1222, 1223, 1224, 1225, 1226, 1227
 1228, 1229, 1230, 1231, 1232, 1233, 1234, 1235, 1236, 1237, 1238, 1239, 1240, 1241, 1242, 1243
 1244, 1245, 1246, 1247, 1248, 1249, 1250, 1251, 1252, 1253, 1254, 1255, 1256, 1257, 1258, 1259
 1260, 1261, 1262, 1263, 1264, 1265, 1266, 1267, 1268, 1269, 1270, 1271, 1272, 1273, 1274, 1275
 1276, 1277, 1278, 1279, 1280, 1281, 1282, 1283, 1284, 1285, 1286, 1287, 1288, 1289, 1290, 1291
 2606, 2607, 2608, 2609, 2610, 2611, 2612, 2613, 2614, 2615, 2616, 2617, 2618, 2619, 2620, 2621
 2622, 2623, 2624, 2625, 2626, 2627, 2628, 2629, 2630, 2631, 2632, 2633, 2634, 2635, 2636, 2637
 2638, 2639, 2640, 2641, 2642, 2643, 2644, 2645, 2646, 2647, 2648, 2649, 2650, 2651, 2652, 2653
 2654, 2655, 2656, 2657, 2658, 2659, 2660, 2661, 2662, 2663, 2664, 2665, 2666, 2667, 2668, 2669
 2670, 2671, 2672, 2673, 2674, 2675, 2676, 2677, 2678, 2679, 2680, 2681, 2682, 2683, 2684, 2685
 2686, 2687, 2688, 2689, 2690, 2691, 2692, 2693, 2694, 2695, 2696, 2697, 2698, 2699, 2700, 2701
 2702, 2703, 2704, 2705, 2706, 2707, 2708, 2709, 2710, 2711, 2712, 2713, 2714, 2715, 2716, 2717
 2718, 2719, 2720, 2721, 2722, 2723, 2724, 2725, 2726, 2727, 2728, 2729, 2730, 2731, 2732, 2733
 2734, 2735, 2736, 2737, 2738, 2739, 2740, 2741, 2742, 2743, 2744, 2745, 2746, 2747, 2748, 2749
 2750, 2751, 2752, 2753, 2754, 2755, 2756, 2757, 2758, 2759, 2760, 2761, 2762, 2763, 2764, 2765
 2766, 2767, 2768, 2769, 2770, 2771, 2772, 2773, 2774, 2775, 2776, 2777, 2778, 2779, 2780, 2781
 2782, 2783, 2784, 2785, 2786, 2787, 2788, 2789, 2790, 2791, 2792, 2793, 2794, 2795, 2796, 2797
 2798, 2799, 2800, 2801, 2802, 2803, 2804, 2805, 2806, 2807, 2808, 2809, 2810, 2811, 2812, 2813
 2814, 2815, 2816, 2817, 2818, 2819, 2820, 2821, 2822, 2823, 2824, 2825, 2826, 2827, 2828, 2829
 2830, 2831, 2832, 2833, 2834, 2835, 2836, 2837, 2838, 2839, 2840, 2841, 2842, 2843, 2844, 2845
 2846, 2847, 2848, 2849, 2850, 2851, 2852, 2853, 2854, 2855, 2856, 2857, 2858, 2859, 2860, 2861
 2862, 2863, 2864, 2865, 2866, 2867, 2868, 2869, 2870, 2871, 2872, 2873, 2874, 2875, 2876, 2877
 2878, 2879, 2880, 2881, 2882, 2883, 2884, 2885, 2886, 2887, 2888, 2889, 2890, 2891, 2892, 2893
 2894, 2895, 2896, 2897, 2898, 2899, 2900, 2901, 2902, 2903, 2904, 2905, 2906, 2907, 2908, 2909
 2910, 2911, 2912, 2913, 2914, 2915, 2916, 2917, 2918, 2919, 2920, 2921, 2922, 2923, 2924, 2925
 2926, 2927, 2928, 2929, 2930, 2931, 2932, 2933, 2934, 2935, 2936, 2937, 2938, 2939, 2940, 2941
 2942, 2943, 2944, 2945, 2946, 2947, 2948, 2949, 2950, 2951, 2952, 2953, 2954, 2955, 2956, 2957
 2958, 2959, 2960, 2961, 2962, 2963, 2964, 2965, 2966, 2967, 2968, 2969, 2970, 2971, 2972, 2973
 2974, 2975, 2976, 2977, 2978, 2979, 2980, 2981, 2982, 2983, 2984, 2985, 2986, 2987, 2988, 2989
 2990, 2991, 2992, 2993, 2994, 2995, 2996, 2997, 2998, 2999, 3000, 3001, 3002, 3872, 3873, 3874
 3881, 3882, 3883, 3884, 3885, 3886, 3887, 3888, 3889, 3890, 3891, 3892, 3895, 3903, 3904, 3905
 3906, 3907, 3908, 3909, 3910, 3911, 3912, 3913, 3914, 3915, 3916, 3917, 3918, 3919, 3920, 3921
 3922, 3923, 3924, 3925, 3926, 3927, 3928, 3929, 3930, 3931
*Nset, nset=PUMP1
     5,     6,     7,     8,     9,    10,   117,   937,  1115,  1116,  1117,  2930,  4166,  4167,  4168,  4169
  4170,  4171,  4172,  4173,  4174,  4175,  4176,  4177,  4533, 10090, 10091, 12155, 12203
*Elset, elset=PUMP1
    3,    4,    5,    6, 3893, 3894
*Nset, nset=PUMP2
     1,     2,     3,     4,   433,   436,  1113,  1114,  1839,  4159,  4160,  4161,  4162,  4163,  4164,  4165
  6299,  6302,  7664,  8004, 12205
*Elset, elset=PUMP2
    1,    2, 3896, 3897
*Nset, nset=Source2
   406,   407,  1066,  1067,  1070,  1073,  1074,  1075,  3194,  3195,  3196,  3197,  3294,  3295,  3296,  3297
  3437,  3438,  3439,  3440,  3441,  3442,  3443,  3444,  6222, 10926, 10944, 10946, 10948, 10950, 10952, 11003
 11134, 11163, 11165, 11167, 11169, 11171, 11203, 12206, 12207, 12208, 12209, 12210, 12211, 12212, 12213, 12214
 12215, 12239, 12240, 12241, 12242, 12243, 12244, 12245, 12246, 12247, 12248, 12249, 12250, 12251
*Elset, elset=Source2
 3898, 3899, 3900, 3901, 3902, 3927, 3928, 3929, 3930, 3931, 3932, 3933, 3934, 3935, 3936
*Nset, nset=Source1
    85,    86,   179,   281,   282,   283,   284,   285,   286,   287,   288,   289,   290,   291,   362,   363
   364,   365,   366,   367,   368,   369,   370,   371,  1624,  1625,  1626,  1627,  1628,  1629,  1630,  1631
  1632,  1633,  1634,  1635,  1718,  1719,  1720,  1721,  1722,  1723,  1724,  1725,  1726,  1727,  1728,  1729
  4472,  4738,  5745,  5746,  5747,  5748,  5749,  5750,  5751,  5752,  5753,  5754,  5755,  5756,  5757,  5758
  5759,  5760,  5761,  5762,  5763,  5764,  5765,  5766,  5767,  5768,  5769,  5770,  5771,  5772,  5773,  5774
  5775,  5776,  6001,  6002,  6003,  6004,  6005,  6006,  6007,  6008,  6009,  6010,  6011,  6012,  6013,  6014
  6015,  6016,  6017,  6018,  6019,  6020,  6021,  6022,  6023,  6024,  6025,  6026,  6027,  6028,  6029,  6030
  6031,  6032,  6033,  6034,  6035,  6036,  6037,  6038,  6039,  6040,  6041,  6042,  7750, 11526, 12192, 12193
*Elset, elset=Source1
  643,  644,  645,  646,  647,  648,  649,  650,  651,  652,  727,  728,  729,  730,  731,  732
  733,  734,  735,  736,  737,  738,  739,  740,  741,  742,  743,  744,  745,  746, 3874, 3875
 3892,
**End Part
**  
**
** ASSEMBLY
**
*Assembly, name=Assembly
**  
*Instance, name=Part-8-1, part=Part-8
*End Instance
**  
*End Assembly
** 
** MATERIALS
** 
*Material, name=fluid
*Elastic
 2.1e+11, 0.3
*Material, name=solid
*Elastic
210., 0.3
** ----------------------------------------------------------------
** 
** STEP: Step-1
** 
*Step, name=Step-1, nlgeom=YES
*Static
1., 1., 1e-05, 1.
** 
** OUTPUT REQUESTS
** 
*Restart, write, frequency=0
** 
** FIELD OUTPUT: F-Output-1
** 
*Output, field, variable=PRESELECT
** 
** HISTORY OUTPUT: H-Output-1
** 
*Output, history, variable=PRESELECT
*End Step
